(written by ASE)

432 atoms
2 atom types

0.0      22.960000000000001  xlo xhi
0.0      20.293964620053913  ylo yhi
0.0      40.146982310026956  zlo zhi

Masses

1      55.844999999999992 # Fe
2      2.0159999999999996 # H

Atoms # atomic

     1   1                       0      2.0293964620053915                       0
     2   1      2.8700000000000001      2.0293964620053915                       0
     3   1      5.7400000000000002      2.0293964620053915                       0
     4   1      8.6099999999999994      2.0293964620053915                       0
     5   1      11.479999999999999      2.0293964620053915                       0
     6   1      14.350000000000001      2.0293964620053915                       0
     7   1      17.219999999999999      2.0293964620053915                       0
     8   1                   20.09      2.0293964620053915                       0
     9   1      1.4350000000000001       4.058792924010783                       0
    10   1      4.3049999999999997       4.058792924010783                       0
    11   1      7.1750000000000007       4.058792924010783                       0
    12   1                  10.045       4.058792924010783                       0
    13   1      12.915000000000001       4.058792924010783                       0
    14   1      15.784999999999998       4.058792924010783                       0
    15   1      18.655000000000001       4.058792924010783                       0
    16   1      21.525000000000002       4.058792924010783                       0
    17   1                       0      6.0881893860161744                       0
    18   1      2.8700000000000001      6.0881893860161744                       0
    19   1      5.7400000000000002      6.0881893860161744                       0
    20   1      8.6099999999999994      6.0881893860161744                       0
    21   1      11.479999999999999      6.0881893860161744                       0
    22   1      14.350000000000001      6.0881893860161744                       0
    23   1      17.219999999999999      6.0881893860161744                       0
    24   1                   20.09      6.0881893860161744                       0
    25   1      1.4350000000000001      8.1175858480215659                       0
    26   1      4.3049999999999997      8.1175858480215659                       0
    27   1      7.1750000000000007      8.1175858480215659                       0
    28   1                  10.045      8.1175858480215659                       0
    29   1      12.915000000000001      8.1175858480215659                       0
    30   1      15.784999999999998      8.1175858480215659                       0
    31   1      18.655000000000001      8.1175858480215659                       0
    32   1      21.525000000000002      8.1175858480215659                       0
    33   1                       0      10.146982310026955                       0
    34   1      2.8700000000000001      10.146982310026955                       0
    35   1      5.7400000000000002      10.146982310026955                       0
    36   1      8.6099999999999994      10.146982310026955                       0
    37   1      11.479999999999999      10.146982310026955                       0
    38   1      14.350000000000001      10.146982310026955                       0
    39   1      17.219999999999999      10.146982310026955                       0
    40   1                   20.09      10.146982310026955                       0
    41   1      1.4350000000000001      12.176378772032349                       0
    42   1      4.3049999999999997      12.176378772032349                       0
    43   1      7.1750000000000007      12.176378772032349                       0
    44   1                  10.045      12.176378772032349                       0
    45   1      12.915000000000001      12.176378772032349                       0
    46   1      15.784999999999998      12.176378772032349                       0
    47   1      18.655000000000001      12.176378772032349                       0
    48   1      21.525000000000002      12.176378772032349                       0
    49   1                       0      14.205775234037741                       0
    50   1      2.8700000000000001      14.205775234037741                       0
    51   1      5.7400000000000002      14.205775234037741                       0
    52   1      8.6099999999999994      14.205775234037741                       0
    53   1      11.479999999999999      14.205775234037741                       0
    54   1      14.350000000000001      14.205775234037741                       0
    55   1      17.219999999999999      14.205775234037741                       0
    56   1                   20.09      14.205775234037741                       0
    57   1      1.4350000000000001      16.235171696043132                       0
    58   1      4.3049999999999997      16.235171696043132                       0
    59   1      7.1750000000000007      16.235171696043132                       0
    60   1                  10.045      16.235171696043132                       0
    61   1      12.915000000000001      16.235171696043132                       0
    62   1      15.784999999999998      16.235171696043132                       0
    63   1      18.655000000000001      16.235171696043132                       0
    64   1      21.525000000000002      16.235171696043132                       0
    65   1                       0      18.264568158048522                       0
    66   1      2.8700000000000001      18.264568158048522                       0
    67   1      5.7400000000000002      18.264568158048522                       0
    68   1      8.6099999999999994      18.264568158048522                       0
    69   1      11.479999999999999      18.264568158048522                       0
    70   1      14.350000000000001      18.264568158048522                       0
    71   1      17.219999999999999      18.264568158048522                       0
    72   1                   20.09      18.264568158048522                       0
    73   1      1.4350000000000001  1.1848980747714435e-15                       0
    74   1      4.3049999999999997  1.1848980747714435e-15                       0
    75   1      7.1750000000000007  1.1848980747714435e-15                       0
    76   1                  10.045  1.1848980747714435e-15                       0
    77   1      12.915000000000001  1.1848980747714435e-15                       0
    78   1      15.784999999999998  1.1848980747714435e-15                       0
    79   1      18.655000000000001  1.1848980747714435e-15                       0
    80   1      21.525000000000002  1.1848980747714435e-15                       0
    81   1                       0                       0       2.029396462005391
    82   1      2.8700000000000001                       0       2.029396462005391
    83   1      5.7400000000000002                       0       2.029396462005391
    84   1      8.6099999999999994                       0       2.029396462005391
    85   1      11.479999999999999                       0       2.029396462005391
    86   1      14.350000000000001                       0       2.029396462005391
    87   1      17.219999999999999                       0       2.029396462005391
    88   1                   20.09                       0       2.029396462005391
    89   1      1.4350000000000001      2.0293964620053915       2.029396462005391
    90   1      4.3049999999999997      2.0293964620053915       2.029396462005391
    91   1      7.1750000000000007      2.0293964620053915       2.029396462005391
    92   1                  10.045      2.0293964620053915       2.029396462005391
    93   1      12.915000000000001      2.0293964620053915       2.029396462005391
    94   1      15.784999999999998      2.0293964620053915       2.029396462005391
    95   1      18.655000000000001      2.0293964620053915       2.029396462005391
    96   1      21.525000000000002      2.0293964620053915       2.029396462005391
    97   1                       0       4.058792924010783       2.029396462005391
    98   1      2.8700000000000001       4.058792924010783       2.029396462005391
    99   1      5.7400000000000002       4.058792924010783       2.029396462005391
   100   1      8.6099999999999994       4.058792924010783       2.029396462005391
   101   1      11.479999999999999       4.058792924010783       2.029396462005391
   102   1      14.350000000000001       4.058792924010783       2.029396462005391
   103   1      17.219999999999999       4.058792924010783       2.029396462005391
   104   1                   20.09       4.058792924010783       2.029396462005391
   105   1      1.4350000000000001      6.0881893860161744       2.029396462005391
   106   1      4.3049999999999997      6.0881893860161744       2.029396462005391
   107   1      7.1750000000000007      6.0881893860161744       2.029396462005391
   108   1                  10.045      6.0881893860161744       2.029396462005391
   109   1      12.915000000000001      6.0881893860161744       2.029396462005391
   110   1      15.784999999999998      6.0881893860161744       2.029396462005391
   111   1      18.655000000000001      6.0881893860161744       2.029396462005391
   112   1      21.525000000000002      6.0881893860161744       2.029396462005391
   113   1                       0      8.1175858480215659       2.029396462005391
   114   1      2.8700000000000001      8.1175858480215659       2.029396462005391
   115   1      5.7400000000000002      8.1175858480215659       2.029396462005391
   116   1      8.6099999999999994      8.1175858480215659       2.029396462005391
   117   1      11.479999999999999      8.1175858480215659       2.029396462005391
   118   1      14.350000000000001      8.1175858480215659       2.029396462005391
   119   1      17.219999999999999      8.1175858480215659       2.029396462005391
   120   1                   20.09      8.1175858480215659       2.029396462005391
   121   1      1.4350000000000001      10.146982310026955       2.029396462005391
   122   1      4.3049999999999997      10.146982310026955       2.029396462005391
   123   1      7.1750000000000007      10.146982310026955       2.029396462005391
   124   1                  10.045      10.146982310026955       2.029396462005391
   125   1      12.915000000000001      10.146982310026955       2.029396462005391
   126   1      15.784999999999998      10.146982310026955       2.029396462005391
   127   1      18.655000000000001      10.146982310026955       2.029396462005391
   128   1      21.525000000000002      10.146982310026955       2.029396462005391
   129   1                       0      12.176378772032349       2.029396462005391
   130   1      2.8700000000000001      12.176378772032349       2.029396462005391
   131   1      5.7400000000000002      12.176378772032349       2.029396462005391
   132   1      8.6099999999999994      12.176378772032349       2.029396462005391
   133   1      11.479999999999999      12.176378772032349       2.029396462005391
   134   1      14.350000000000001      12.176378772032349       2.029396462005391
   135   1      17.219999999999999      12.176378772032349       2.029396462005391
   136   1                   20.09      12.176378772032349       2.029396462005391
   137   1      1.4350000000000001      14.205775234037741       2.029396462005391
   138   1      4.3049999999999997      14.205775234037741       2.029396462005391
   139   1      7.1750000000000007      14.205775234037741       2.029396462005391
   140   1                  10.045      14.205775234037741       2.029396462005391
   141   1      12.915000000000001      14.205775234037741       2.029396462005391
   142   1      15.784999999999998      14.205775234037741       2.029396462005391
   143   1      18.655000000000001      14.205775234037741       2.029396462005391
   144   1      21.525000000000002      14.205775234037741       2.029396462005391
   145   1                       0      16.235171696043132       2.029396462005391
   146   1      2.8700000000000001      16.235171696043132       2.029396462005391
   147   1      5.7400000000000002      16.235171696043132       2.029396462005391
   148   1      8.6099999999999994      16.235171696043132       2.029396462005391
   149   1      11.479999999999999      16.235171696043132       2.029396462005391
   150   1      14.350000000000001      16.235171696043132       2.029396462005391
   151   1      17.219999999999999      16.235171696043132       2.029396462005391
   152   1                   20.09      16.235171696043132       2.029396462005391
   153   1      1.4350000000000001      18.264568158048522       2.029396462005391
   154   1      4.3049999999999997      18.264568158048522       2.029396462005391
   155   1      7.1750000000000007      18.264568158048522       2.029396462005391
   156   1                  10.045      18.264568158048522       2.029396462005391
   157   1      12.915000000000001      18.264568158048522       2.029396462005391
   158   1      15.784999999999998      18.264568158048522       2.029396462005391
   159   1      18.655000000000001      18.264568158048522       2.029396462005391
   160   1      21.525000000000002      18.264568158048522       2.029396462005391
   161   1    0.012776698483592433      2.0006748334020745      4.1590232015981172
   162   1      2.8614446860866836      2.0709174679953359      3.9271885468804961
   163   1      5.6567584291709938      2.0161533759626398      4.0546294671175263
   164   1      8.4980631033901854      2.0232002859353413      4.0311647899026193
   165   1      11.326931320991083        1.89793548633662      4.0672670530317534
   166   1      14.310138804032242      2.0320423854044636       3.842629651268656
   167   1      17.370840621571574      1.8196604209683465      4.1679964211254763
   168   1      20.112205860595928      1.8396128394841769      4.1371106933794843
   169   1      1.5107993596076781      4.0199276166652256      4.0934068720631513
   170   1      4.3443752220507372      4.1007740635003387      4.1605154984024395
   171   1      7.1992564433914898      4.0130110966130639      4.1324197688440165
   172   1      10.121812183415292      3.8658496211073783      4.0568000294535471
   173   1      12.721384815232902      3.9470703747865263      4.2221357160001922
   174   1       15.84792339813273      3.9442392331225391      3.9613731110273993
   175   1      18.669972168812567      3.8433429234157739      4.1061591777177888
   176   1      21.513502820187036      4.0135602789798508      4.2495350844184223
   177   1    0.083811062293558738      5.9127682665007661      4.0492819076877842
   178   1      2.9043144477096381       6.085912053310258      4.0737976153345379
   179   1      5.9907122892388678      6.1921047390974753      3.9934954776931204
   180   1      8.5686484172053117      6.0848870159935746      4.0476810851322318
   181   1      11.559183684924093      5.8811256298587091      4.1149849230250961
   182   1      14.234289643986372      5.8174610149934916      4.1954928990602882
   183   1      17.125750753287587      5.9297356787349518       4.012387567181789
   184   1      20.132555294644114      5.8059241526380712      4.0999632809735758
   185   1      1.3478968184409503      8.1631824160889206      4.0681852625881483
   186   1      4.5599428057476947      8.2143907965841372      4.2253813546414758
   187   1      7.2136583546369542      8.3436225724434649      3.9896798712671053
   188   1      10.102209157688749      7.9643463648168114      4.0238570875935658
   189   1      12.897473499230459      8.0021814180782869      4.0845861427211885
   190   1      15.719972549398245      7.7627658719128467      4.1554807519148351
   191   1      18.671742231335106      7.9533521717102378      4.2083563370368022
   192   1      21.372223572140424      7.9178292218446868      4.2310096322123627
   193   1      22.921237395902477       10.11913695608769      4.1658651155540598
   194   1      2.7314612720336102       9.999164543564671      4.3093421858143914
   195   1      5.7153869430994346      10.228668902940681      4.1534012472243731
   196   1       8.570741719941017       10.14772649967856      4.1110907500845215
   197   1      11.439290778706724      10.031454211261297      3.9393857654807665
   198   1       14.24747478429132      10.033067234446767      4.0212272949057857
   199   1      17.188231246183275      10.023012802110795      4.0318540783521701
   200   1      20.285961023913643      9.9002739148538801      4.1129323609442157
   201   1      1.4753017940856661      12.105724378156115       4.131726952659462
   202   1      4.3575140305533431      12.188827932827014      4.1791043655576079
   203   1      7.1318465956162154      12.137635552940298      4.2057829468982204
   204   1      9.8525935009901549      12.181604684037071      4.0969556597970014
   205   1      13.036741858575098      12.200394887448253      4.0345641623614243
   206   1       15.74991806781903      12.082821171190714      4.0242717400961494
   207   1      18.698688807544585      11.865809568149317      4.0226849599700847
   208   1      21.516279179368539      12.125920146517137      3.9911339633284313
   209   1    0.037715416010733804       14.18648223773644      4.1461250048682041
   210   1      2.8559379469103914      14.019933865823571      4.0637703368841152
   211   1      5.6684285061383992       14.17406850077516      4.0874003585266854
   212   1      8.4050625185260603      14.200324273501959      4.0945756436297982
   213   1      11.513184674357989      14.106955867070408       3.856273175043619
   214   1      14.296080370093401      14.152823626165214      4.0394587947169835
   215   1       17.10798643793439      13.875430260692415      4.0260135712230936
   216   1      19.878776635618994      13.935634619685004       4.077855280567479
   217   1      1.4187485824229025      16.078427419644509      4.0496181921296328
   218   1      4.2586054409944989      16.355517588861897      4.2019614526089333
   219   1      6.9871300439981638      16.211574083173797      4.1193618289138199
   220   1      9.9444308946761168      16.126439073947914      4.0164752656872773
   221   1      12.892049985814817       16.22878961366002       4.181109512944218
   222   1      15.914383328504918      15.996330116334457      4.0750083427788724
   223   1      18.581453705770713      16.197346807577542      4.1573591805651136
   224   1      21.385903940194535      16.219135452557932      4.0928081659079432
   225   1     0.11330072335015845      18.156288748197934      4.3680122729077189
   226   1      2.8020107394167066      18.152712216649672      4.1932258000633107
   227   1      5.7419523835632944      18.308311860907587      4.1222426956287013
   228   1      8.6143740122789829      18.264047080605355      3.9162885586204395
   229   1       11.65683592472501      18.201496736410032      3.9600909325197629
   230   1      14.425394986400386      17.940626061916394      4.0732942427453116
   231   1      17.395713030060605      18.269734542230012      4.2159563114388954
   232   1      20.215195289445099      18.157303755757603      4.2603707534593775
   233   1      1.5216650054897347      20.166501812278671       4.232899686012833
   234   1      4.3193624762897205      20.271604833235234      3.9140935154297951
   235   1      7.2602298107693493    0.011396512399208802      4.1365856828606073
   236   1      10.124786846895072      20.152721532899339      4.1593749430162976
   237   1      13.020739858061289      20.081366416221861      4.1751578882497693
   238   1      15.912629841837079      20.244221076930629      4.0148365583330268
   239   1      18.608623989000048      20.090486953774565      3.9786220124103595
   240   1      21.713553268807321      20.095894218848766      4.3284601500361894
   241   1     0.10016244481531972        20.2171181961758      6.3956766483873198
   242   1      2.8347735048303626      20.196372859883805      6.3241861764215237
   243   1      5.6028619998028963      20.081580310273566      6.2438704877362614
   244   1        8.61754114389786      20.172986704374257      6.3288767561641697
   245   1      11.542442718823768      20.180675105572554      5.9914066183353647
   246   1      14.297177712425112      20.209700944306284      6.0077366862120609
   247   1      17.363441303199107      20.121412886940924      6.1431739942070047
   248   1      20.281268036719577      20.118805263800827      6.2082772509426292
   249   1      1.4851919096177639      1.8490702686632583      6.2476494104256437
   250   1      4.4172252898252529      1.9720455306547002      6.3713725490071624
   251   1      7.1600901541809945      1.8728319473061916      6.2438179970634256
   252   1       9.985299444247584      1.8974416818193083      6.0996690108664788
   253   1       12.86035625805912       1.973242652649376      6.1063648201842771
   254   1        15.7895854305215      1.9045981856293364      6.1321729928849731
   255   1      18.655758490428941      1.8578384480483103      6.2407939325925668
   256   1       21.62779920992752      1.8949649728161999      6.2246279609570738
   257   1    0.072120351374784106      3.9019567323416342      6.2370575005732096
   258   1      3.1243372678081904      3.9265002518317358      6.1823585290363789
   259   1      5.6351405432880401      3.9804351070282591       6.209356317765093
   260   1      8.5359056011593033      3.9614379370622341      6.1686412908909958
   261   1      11.179706722264465       4.096468362308233      6.0754067868101105
   262   1      14.369843184706278      4.0377930620175482      6.0125516395644674
   263   1      17.246134080888101      3.8572269496770626      6.2288341317272211
   264   1      20.179334666756553      3.7176241764714648      6.1663756915168397
   265   1      1.5717748358548798      5.8843446734951597      6.0686039712070672
   266   1      4.4368116090389318      6.2040282608918096      6.1561206792378123
   267   1      7.1753007317662219      6.2443903782041259      6.2089412573837777
   268   1      9.8033083913167172      6.1278621893414043      6.0411770252946058
   269   1      12.683458377093963      6.1875192564844399      6.3017182101318774
   270   1      15.932850208591031      5.8675921515257805      6.1154718266445682
   271   1      18.733660124717655      5.7016338545828917        6.06263488963351
   272   1      21.525681829511022      5.6499196177946498      6.2695526596293982
   273   1    0.034563693434098042      7.7965463839752998       6.226130489417451
   274   1      2.8774562880043932      8.0882198096333209      6.1112679361260707
   275   1      5.8490697877156039      8.0859301006153057      6.3262693275157114
   276   1      8.4349680419173119      8.2284289135467628      6.2172384989940062
   277   1      11.387777893294723        8.20571681848776      6.1886499389053258
   278   1       14.30431487327383      7.9396358774989606      6.3848003096070522
   279   1      17.292199953092531      7.8201442281827136      6.1379053930098362
   280   1      20.156890796409389      7.8251240171548417      6.1857303637097809
   281   1      1.2993171802439996      9.8146261968843493      6.1878485637256428
   282   1      4.2039453282408461      9.8998733661851102      6.2928992050404968
   283   1      7.1173335582854911      10.145708999969584      6.2262375080039769
   284   1      9.6975116775637424      10.001825225702468       6.221430365749459
   285   1      12.848259680432495      10.021897470470444      6.2417309607082281
   286   1      15.773133858337205      9.8026150848863089      5.9477196937086489
   287   1      18.594256756897124      9.8756283967790708      6.1810530352154611
   288   1      21.600033586713678      9.8272219633592854      6.0868242571127915
   289   1    0.060163856669002924      11.942648083202734      6.0459010473009469
   290   1      2.9498337180480334      11.957914293082274      6.0844951978111288
   291   1      5.5344709725727279      12.239601883646754      6.1784327469065801
   292   1       8.586446302013707      12.161791563789556      6.2740287954186051
   293   1      11.384000811682441      12.263441694433677      6.1450747665648802
   294   1      14.418154977979052      12.034893289190961      6.2166072856573278
   295   1      17.439562911130437      11.985927206847359      6.0464315217333127
   296   1      20.322805765940512      11.996298340285716      5.9654857932643797
   297   1      1.5261309845135753      14.089645122704139      6.0627424746741774
   298   1       4.152419052214678      14.196275939112159      6.0611912333637701
   299   1      7.2737889091870098      14.064505603728117      6.1517505706585593
   300   1      9.8783694512802747      14.203142263820173      6.1002002775727933
   301   1      12.927152289753108      14.047659784265614       6.192228517406603
   302   1       15.92325806684851      14.016664857565187      6.0036376903404562
   303   1      18.605564940504696       13.96872289186199      6.0635379378202208
   304   1      21.574429793379768      14.120576362483103      6.1777461812235437
   305   1       22.94201629724693      16.155508433350292      5.9740405639252678
   306   1       2.670306314696298      16.210617355514536      6.0645273055656554
   307   1      5.8170380244301194      16.084253365027539      6.1796541331416428
   308   1      8.6692921905069831      16.118332401681243      6.3806327458801677
   309   1      11.593935371889335      16.209362903595579      6.0643736452389101
   310   1      14.254974395791407      16.147429134875392       5.981177323816266
   311   1      17.317188844740819      16.113165021860024      6.1142883105831842
   312   1      20.177050791830247      16.081830678170331       6.179550369073759
   313   1      1.5163873812080788      18.285185246803369      6.2277012377456229
   314   1      4.3304371853429968      18.062202921105296       6.293713007463194
   315   1      7.3250087615259849      18.039774169524527       6.158719336369928
   316   1      10.141220640821754      18.178154285165373      6.1170812426633407
   317   1       13.06890601424554      18.215250758855454      6.1752894621818069
   318   1      15.813310256167227       18.09853846047552      6.2017785847330185
   319   1       18.78842438270123      18.139591154974603      6.3628204996987145
   320   1      21.616708223843169      18.153899639862562      6.3478109306500574
   321   1      22.840645184429697      2.1078810531280041      8.3185304459222777
   322   1      2.8854490978213621      1.9155838862515744      8.1905563773297505
   323   1      5.8917253014784645      1.8411647737332189      8.2792097693070907
   324   1      8.7116065609730455      1.8741936548186415      8.1464559959741596
   325   1      11.307324078263314      1.8229862357776341      8.0499001644113068
   326   1      14.334345687483244      2.0436753456411809      8.1304418075407234
   327   1       17.20510037545921      1.8939532210054422      8.3847089761787785
   328   1      20.029584695823441      1.8331942165499255        8.11612294949812
   329   1      1.5950680206227221      4.0434628324121586       8.241829914446404
   330   1      4.3300652141904008       4.029756949491218       8.212885826782875
   331   1      7.1358287785499668      3.9656214789068454      8.0590474901211753
   332   1      10.137516241939247      3.9776664887469311      8.1646174669571128
   333   1      12.853503538955971      4.0478957675409628      8.1677534700939187
   334   1      15.845333469041577      3.8169338491656122       8.326850847450757
   335   1      18.806269474886292      3.7473834246283526        8.14871025905145
   336   1      21.398923649743487      3.8823396684606402      8.4983928911316848
   337   1    0.082126776524156814      5.7343501696007406      8.1726265092385244
   338   1      3.0001730810800158      5.9794838601444145      8.1310875763896959
   339   1      5.7980994185482411       6.134274562132509      8.2124491139014282
   340   1      8.5987928808964949      6.0204239646263877      8.1332604044604224
   341   1      11.479036595328203      6.2046218182410504      8.2013419682952122
   342   1      14.511388877156531      5.9047872479543049      8.1790490779207019
   343   1      17.404590934493456      5.8128847377364323      8.4986192119056803
   344   1       20.04058289465922      5.8840749420061407      8.2035028600423328
   345   1      1.2916046417336025      7.8064410208726027      8.0139622152850087
   346   1      4.4090281798184456      7.9766041161261461      8.3001142288033432
   347   1       7.213107696303477      7.9450806244395862      8.5253469098783032
   348   1      9.8116113411719486      8.0163601214921254      8.3306226177131215
   349   1      12.767052522835598       7.988958657296509       8.307401902515668
   350   1      15.652890743719391      8.0557162792393111      8.2562539492031881
   351   1      18.463877493967821      8.0920286866274829      8.2181445900509544
   352   1      21.645042660985766      8.0465159529484751       8.374313758031505
   353   1      22.956300570037019      9.9976587808669031      8.3340176548802507
   354   1      2.8247638127134436      9.9419050529290978       8.334180940003554
   355   1      5.7458187142441277       9.898581079808654      8.4583275083957812
   356   1      8.4136500949894639      10.085295441073717      8.5174085601598417
   357   1      11.476543054105377      10.025247294483751      8.1605982954395238
   358   1       14.49546285011386      10.022910838718026      8.2601021520409468
   359   1      17.288690139270646      10.097716125247191      8.2303716879894324
   360   1       20.22650381719243      9.8550944675609227      8.4788203359412062
   361   1      1.3555938437799182      12.020803386604143      8.0698545003718909
   362   1      4.2454848120107087      11.941902895837478      8.2530936887827764
   363   1      6.9843330818434968      12.049477131820041      8.2602508916513102
   364   1      9.8633310421164069      12.086447164471801       8.218320772617842
   365   1      12.921311423444655      12.001037297366944      8.1389072512608394
   366   1      15.869877769673231      12.094592561504166      8.2516825268976923
   367   1      18.739099088026119      11.928313664177734      7.9292966874929975
   368   1      21.416061252529769      11.908471830153701      8.1878318656094375
   369   1     0.11753426386551435      14.123640113557673      8.4263489305703345
   370   1      2.6771518027980989      14.066250826253684      8.1857935076133916
   371   1      5.4808198756936912      14.045996299099041      8.2818236206837099
   372   1      8.5353768170920628       14.13169580532271      8.2512765570992723
   373   1       11.70950876866404      14.116202347802984      8.2957267419126826
   374   1      14.537435057003414      14.118733402201327       7.973644443959234
   375   1      17.298500162184393      14.156253393961196      8.0957850929286259
   376   1      20.148143267641935      14.023958778428408      8.1719692864303308
   377   1      1.2838584732084877      16.067897121109862      8.0553716522759444
   378   1      4.1098960948771497      16.117368972358904      8.0858642991075858
   379   1      7.1988021850514325      16.163700875861817      8.3968564448956275
   380   1      10.176403369337187      16.127393652287434      8.3031151336508451
   381   1      12.723727496613058      16.132623937663737      8.2297590308624464
   382   1       15.87255166699914      16.222247085507249      8.0866008075078923
   383   1      18.804230022337475      15.979965400681605      8.1910795075537948
   384   1      21.434073286077858      15.963206694839409      8.2123326879637055
   385   1      22.914575542819325       18.12432688962468       8.299152359704701
   386   1      2.7290378848881578      18.194669322329929      8.3651499475072626
   387   1      5.7037957196583911      18.200936177179528      8.2375920950528858
   388   1      8.7912306214610396       18.13369002770802      8.2677715312845734
   389   1      11.594175614173603       18.16168709280894      8.1210209828698918
   390   1      14.385301858879171       18.28852172605399      8.2883938191759601
   391   1      17.256132980003652      18.170034221442371      8.4474441773436766
   392   1      20.050208345829304       17.82568919406447      8.3437273686081372
   393   1      1.3515353440491233     0.12336216685244603      8.5054950288580429
   394   1      4.1061004679639685      20.155948529567443      8.2415877611451549
   395   1      7.4576021403437478      19.849517908056857      8.5040214211030136
   396   1       10.21121929873652      20.077641286180977      8.0012562290000684
   397   1      12.936555020346729      20.146516848792007      8.1730573997392995
   398   1      15.657938422566295    0.010410813612008529      8.2532690422051402
   399   1       18.72520694734267       20.17709836931224      8.1733537491166413
   400   1      21.557710150185109      20.172874936187629      8.5588546263271663
   401   2      9.8280912354825993      2.4409814131130192      31.775035961603024
   402   2      9.3288965583387569      1.8607174088919203      32.051082622563293
   403   2      21.935709204190271       4.013293719132184      26.697006995768358
   404   2      22.396133492213306      3.8625532829523372      27.170698374518025
   405   2     0.14097498733156755      17.323482618128917      18.818946205681399
   406   2    0.044079349071235896      18.040346773280788      18.763281289795842
   407   2      8.3508932571384911      8.1302793185442379      39.399415964984662
   408   2      8.7538975365546641      8.4995176280201523       38.76431123865045
   409   2      11.429438141785754       2.981248566141395      36.395899217855025
   410   2      11.494873128123922      2.5972880444758548      35.683284289412725
   411   2      1.2102758483227127      8.1647275548387839      38.814475917091741
   412   2      1.6811088842466302      8.4071585641185749      39.276763870656147
   413   2      5.1671036801810351      12.662022089208801      18.987053282476978
   414   2      5.5155556159305084      12.699060407877557      18.333960008577758
   415   2      10.368052132255897      13.932378802437473       31.70555294395038
   416   2      9.8274884016954189      13.431216485325089      31.578273767862182
   417   2      15.883249717584853      10.423573791163227      27.171616178038185
   418   2      15.773355370961264      11.050242393518827      27.459755295139239
   419   2      5.6264596405092506     0.73184885687153389      39.507969111941392
   420   2      5.3981830005320113      1.3777066952536372      39.398687997376499
   421   2      14.918312240481191      19.360541472078069      28.849933705663638
   422   2      15.146186566900154      18.976458585787427      29.630463756436672
   423   2      11.777736320323278      7.3359719898543094      15.776734211960097
   424   2       11.89736985955272      6.7723474015649137      16.204591739698024
   425   2     0.30546331875774663      7.6124407641081966      26.323131252476088
   426   2    0.088342108257364771      6.9161718486981894      26.491249442629567
   427   2      6.7621297613556939      14.759639416850234      33.413359137113083
   428   2      6.5201121537348454      15.468016197172453      33.481888812554033
   429   2      4.2115132493936018      2.3461466907114024       33.60899362522909
   430   2      4.4865829579827858      1.6643642794972071       33.97068838423958
   431   2      8.6680851016807043      18.430101865321731      30.318701562061243
   432   2      8.0996768980804532      18.949759712055922      30.535913990419864

Velocities

     1    -0.49465708659140595     -3.7100917112770753      -3.217517628466688
     2     0.55616666127939485      1.2993831432188474     -3.8773466288112122
     3      2.6380919501549158      1.5003722231428094     -1.6674365648475284
     4    -0.91222708292665222      3.8118044321654465     -2.0094421422550575
     5     -1.2289655582420935      1.4706605175196288      0.3504714894392631
     6     0.91281422599574491     -1.9897804882774379     -4.1753817289908524
     7     0.19989869920319378      2.1991736400727508      -2.710759477477608
     8      3.7220968882609955     -2.1244025307476755     0.50499334449020572
     9   0.0053788480588081843    -0.49972939878345524     -1.7922817835468365
    10       1.368709637678003      -4.767042294553173     0.63151147236215954
    11      3.5296287878622046    -0.48317076513254892     -7.2244526487782563
    12    -0.79992398518685548      1.2701354620539298     -6.8811592285207723
    13      -1.586578899044724     -2.4107290683857348      -7.196062024079489
    14     0.59757083080269668      5.1440350555640331    -0.31370922193010303
    15     -2.6702693989178212      11.959381849208443     -7.4730755161607494
    16      1.1984531125261502     -2.0286468350806897     -1.7278441190335443
    17     -0.5925704103401106      -1.301245980218249      6.9087097404590985
    18     -8.1017631769078324     -1.8399975194218718     -1.4935392997641752
    19      9.5837137799941488      7.7405492701884917      1.8335581984513223
    20      2.9598171769019528      2.4092422058126712      2.3072418272478856
    21     -5.5248660632858471    -0.25488517178692033      3.6445961444178239
    22      3.2908406996820534     -3.0551398190528709      6.6996544268138294
    23      2.2886257734139579     -6.5300484889535468      4.1453216584037094
    24      3.0525953931179859    -0.64070805079742377     -3.8291641263195095
    25      5.5403322570521825      4.1082892327831155      1.8563413766142842
    26     -4.5073277686766007      1.3389185165956154     0.82070607464016587
    27    -0.95082296236679398     -2.3192920630995113      1.7567634910598764
    28      4.5369784423364985     -6.5832203369629472      4.0178267332749531
    29     -5.1339836914713883      3.4916372240341063      1.8550540574750292
    30     -6.0940469727149331     -1.6472135654672684      -4.430366193063688
    31      5.3420579347844726      1.2393746777065207      1.4268832074932232
    32    0.097578257797302906      6.0485809611023917     -3.3057572038565848
    33    -0.72158867392406978    -0.29148217848584329     -2.5048796715668198
    34     -2.9502725464117319     -3.8010116773293197      0.2386093290947614
    35      2.8962886863831909      2.5286159439059928     -1.5915116285250643
    36     -1.2915459125373294     0.16004422695222653      1.1142946692754032
    37     -5.0891873509492278     -4.1322860062769902     -2.6546758591568373
    38     -5.0900015574332844     -1.9559000049287687      2.8172819666212798
    39    -0.56887581287994482     -1.0003692435343878   0.0048851664658079563
    40       2.318023133851209     -1.9528600508855101     -1.8674249246278307
    41     -6.2244635197440719     -5.8224832537331199    -0.35776514591734915
    42    -0.44054368877393818     -1.9778438215143093     0.88638529136828204
    43     0.44387266026350419    0.073040750794589826       4.511480485523685
    44     -1.1559813385039903    -0.44968885459228281     0.47317586886995527
    45      3.7013653399979769      3.4473577075777069      5.6388313824033149
    46     0.37267376063428903      1.0672870100120631       2.527738714521282
    47      0.2137567690122176    -0.71116466053468153      2.9831692241358829
    48      5.3963595295991924      3.5092906115392775     -3.8434322060234596
    49     -2.2971650455062314      2.0726587562046941    0.053521609826412873
    50    0.056235190870626013      3.1322919955098829      0.8221830978225303
    51     0.64031084026583296     -3.5434215003333351      1.8306772193443417
    52      -7.255751566030276     -6.9659753507502549     -5.8571298633725757
    53     -5.1486666018394915      -2.543191764151854      4.0895763487360171
    54      2.5066376096211807     0.28332498063172623     -2.0367958075726897
    55     -2.9344354048136978     0.22284290153226455      4.6749432341429547
    56    -0.86852262041703221      4.4883315015385028     -1.1081949285683423
    57     -1.4641193431404731    -0.57286828702134374     0.55480876075176033
    58    -0.86784733899429267     -2.0663943800250459      2.2329890342386394
    59      4.0859180152761674    0.071065785333329884     -1.7483633285215314
    60     0.42147117046886057      1.9362291562335796      4.1078132500545177
    61    -0.40260676950651575     0.75104045321099677       4.626738186624336
    62     -1.7233546422636095     -2.1257621161575964     -3.1499821004326383
    63       3.680999392971724     -2.2530268522372552     -5.0282048243843969
    64      10.347817166545958    -0.12625583264476503    -0.26264786203341867
    65     -2.9009447739669039      2.0725608064696197     0.17496726769131052
    66      2.8842848635429656     -1.7296035076736507     -2.5617242801687246
    67     -5.0251036494644499     -1.2170790215209115     -2.4945034913355908
    68    -0.19145951902937022     -4.3133770656260069     -3.2026450776595166
    69     -1.0324069400586728     0.58942540597994886     -1.0594943909648975
    70     -3.3019886033940948     -1.4825483114417113     -3.4303112804548737
    71     -4.0185789903559801      2.8144814737956203     -3.6968493165202991
    72      1.7568769121621206     0.35212608294866132     -1.5749522014245083
    73     -6.6100399456806906      4.8621847715344026      3.3051657434324415
    74       0.996643636574717       4.023908510302129      2.9825861000639264
    75      1.8820588229531467     -2.2915026684696871   -0.033597095853081155
    76      1.5301815625741337     -3.2260217086664822     -4.5940211754784421
    77      2.7004998428971105      1.8739362971177502      4.3295533471905632
    78     -4.6816195045855409     -5.7722275322810557     -1.5827544807245715
    79      3.1487613510377912     -3.0136672886401095      1.1390311492733496
    80     -3.1155923895654816      5.3758300811457334     -1.4040626926162891
    81     -1.9804203628061432     -1.8909402847862102      3.6123603742163493
    82     -4.1237677518260751      2.0072126354829205      4.2314771553094843
    83      1.5786898347507194     0.24750147750890486     -1.4966805300877559
    84      2.6875136347914945     -4.2349419025760273    -0.34425427728354097
    85      1.2558452204735697     -1.0910023854699924     -3.3805416162966324
    86       5.691456277540949      4.3780372464827737     -4.8631564333503619
    87     0.95654268412370347       1.190947356321634      0.9258150194781295
    88      -4.111808737447614      9.1342449855260988      2.6677411447347574
    89      2.7450659307406551      1.4486848632588649     0.15960047133726465
    90      8.4992203126517509      1.5864777665920387     -4.6227846150817431
    91      1.5901739150775056     -2.8792057301564418      3.2516127456049806
    92     -3.3326851621258653      0.1268679770141487      -1.274997539585077
    93     -2.9282537583334407     -1.6328259828765994     -1.3051823466227079
    94      3.1719720949930954      3.1759121650300299      1.7718932891452781
    95     0.54008794402749494     -1.8351050984955644    -0.55847713740716431
    96     -2.5769644546150468     0.34739420454456171    -0.26186825522812157
    97    -0.48453159652608163      3.7732277504380582      4.0839883862650357
    98     0.35059322642871577    -0.97625292230241212      1.1100920623531332
    99    -0.41351645764240841    -0.53596211667656546      2.5662269720949022
   100     -1.4755385474408045     0.84425009137356954      1.2295477613647796
   101      1.8091695942172104    -0.68246664196447149     -2.1904603382183114
   102   -0.090461872454758577      1.8742166258674002     -2.4048961260921975
   103      1.0030277154042329     0.25415034757635874      -4.082965797481223
   104    -0.33299697477970902    -0.64510191803814554     -2.0419414725681526
   105     -3.4779408634712898     -4.7270606387572061     -1.9904412807364917
   106    -0.76790465778352135      1.6256347124756287      3.5220696747802163
   107      5.0588439476205451      2.9848082278172861      5.0039443833988839
   108      6.3901718309264171     -3.3704524137700038      -2.785865083325143
   109      0.2146601568201853     -3.7034170841072309      5.2472496293040241
   110     -1.4219387501291898      8.5944324788718856      2.5704425734078633
   111     -0.4798125199958212      2.0228338289334422       1.288564573392766
   112      -6.268753140700519     -3.7911577692720257      1.0351555294318833
   113     -1.8687061973036321     -2.5193146140174827      2.9930801219721905
   114     0.23451854426963165     -5.2136017409694224     -3.4095501582901613
   115    -0.24218321691898081      2.4055562056893183    -0.11323524922330466
   116     -1.2828453951456309      2.0564846459548587      5.9513808774555157
   117     0.66253243865748446     0.29652922231556583     -3.2867936787971006
   118      -2.071933882983866    -0.51760851314132039     -4.8874086521888991
   119      3.9463819428756928      3.4099605996691125      4.1773636658439806
   120     -1.2445465151465669     0.50306670606234261       1.501094630855818
   121      5.6657882821517074     -2.2669263258333596     -4.8815277271142179
   122   -0.023191363680490396     -4.2355208373144198      3.8160278818449442
   123    -0.01864001562911325      2.1395824057067667   -0.084473180475727633
   124     -2.3427607234714771     -2.6242152831369285    -0.18871724912443683
   125      2.2256249789547629     -2.0433985113218163      3.9163762925960506
   126      -4.527638774733008   -0.022692995215359311      4.8350485070468352
   127      6.6095815103639639      3.6552985583859088     -4.9923888077267451
   128      -5.122574309004654     0.33873788560754303      0.3027647136456782
   129     0.69977115051331751     0.29263875595402145      2.3612448872762863
   130      3.3133718317008833     -2.1191417256796936      1.5799601387597169
   131      0.6927630255510312       3.279674862708025       1.540102744409908
   132     -1.9012550818005152     -2.2882519678872844      4.2368620748275276
   133     -2.9058358406600791     -4.0831606802259204     0.75112217651233315
   134    0.053547426549459785     -2.7721181600078304     -5.9685338795106135
   135      2.4508418125106077     0.36030921350283029     -3.7548998875667854
   136     0.54435287876645488    -0.71336540164406292      5.4405472110656259
   137     -4.5861260784883422     -1.1302629113184055      2.9044479024361602
   138      0.8200446074275709    -0.59068302393718675   -0.044204887593135331
   139      2.3190695164985979      4.1903550739090498     0.06280100750457121
   140      2.7040973467124978   -0.092900506437461713      1.3255072159691095
   141      4.2505979405411356       7.178687622102812     -10.259108804916098
   142     -1.8052116015768951      -1.029461788852075      2.0064540297647087
   143     0.97898339980572169       0.420889619143268      3.0006897317565522
   144      1.2302465756991037     -1.9953709709946683     -1.2552491707391145
   145    -0.79165646012018465     -4.7596078981779657     -1.8254030705226496
   146     -3.2844945556608423      4.1255370743587116  -0.0025984916853453231
   147     -2.0332991620150533      2.2707014453294891    -0.20782476886672296
   148      2.6660636145007111     -1.1775729214335318        7.18265087933296
   149    -0.53111740756961934     -1.8277609670693107     -2.6047703317849522
   150     -1.2013296969645635     0.51855339683835611      4.2667839728736388
   151     -2.4629495317146772    -0.16938718427274038     0.92042993567644849
   152      3.2354074481007276      1.0603178819104402      1.1138777284921593
   153    -0.68169459490338069     0.53048337493118514    -0.81607813379126104
   154      -5.207070139290976    -0.30846015301473051     0.18955626554425611
   155     -1.1479222999853067      2.7661456864210558     -1.8613861430165353
   156     0.81684467622470536     -2.5885403300812579     -3.3284155529232207
   157      4.7702704572803141    -0.37908640091364737      3.6410697042613309
   158     -1.4083432503120044      2.0896058470756422     -5.4247564885384882
   159     0.39615828267112152     -2.7518558682734868    -0.46264570315128917
   160     0.69900918627956288    -0.50584684825647885      5.0606363032582218
   161     -5.4611680664113766     -6.0607882413145111     -1.2606540921310077
   162    -0.98387017373393193      2.6092950780096258     0.50982489159791267
   163      5.1088919632907093      4.0845290150963507     -2.0518341512135829
   164      2.4821701231328959      6.2740821733390462      4.5643526386577715
   165     0.83456377016114314     -3.5896095388720544      2.3783079997270939
   166     -1.1232668914142085     0.29204776212796346     -4.4808316297865982
   167      6.3893512744120304      3.0402218688846228    -0.64739165005184707
   168     -9.4419459845793732      1.3163825651200076     -4.4436015563199742
   169     -2.5718970918609481      -5.806373992779629      2.6415020072822841
   170      2.5784373543521988     -6.0829267186700164    -0.64997435759347455
   171      3.3884120706787231     0.65442524112841105       2.758575349229238
   172     -3.6476607489521466       2.865070647931697     -5.8660336775170698
   173     -5.9410297832118717      4.8506040970233721      1.5391132049856737
   174      3.6749068587660139      1.8863235469443231     -2.0983466843656688
   175     -1.1004278049131497      6.2230299698774729      6.5750406531558347
   176     0.71409574775168494     -3.6036002473791231    -0.62239073289574309
   177      -1.944268786958895    -0.30921411031237711     -3.0365516793794183
   178     -6.0457041743022524      -2.796875776797723      3.5321330061309295
   179     -3.0817838539889468     -1.6228809865927836    -0.37164097361495191
   180      -3.187107216770011     -1.1807506374013137      0.7645300845878451
   181      1.9292468048406619      0.1780840656570444       1.905793082873519
   182    -0.24626987147953566     0.79275222923122457     -4.8267260557377831
   183     -2.2002617695871609     -2.9997353001323068      4.3202845521298761
   184     0.80622423309973557      2.1059816914274512      1.5644509921496903
   185     -1.3168319568342106     -1.7466432237460066     -1.8225396971510877
   186      5.9269549679349147      2.6862040179509701      5.8180942915944733
   187     -3.9877738434359244     -4.3371536185270028      1.9747775742710729
   188      0.5419093000498908      3.1252656881763801     -2.8872088564307692
   189     -4.8642644829274015    -0.71633318134373247      1.9354087996149225
   190     -2.5666860019061608     -2.1042138447289305    -0.67581071874461307
   191     0.33861429677108712     -5.7890323851360588      3.9924184802101248
   192     0.78622486135482172     0.22635645257301115      1.1236002090119448
   193     -1.4500416191934251      2.3846186330590551     -3.7879274923124231
   194      1.3475414950488054     -1.6645934849947805     -5.0458242180001163
   195     -10.004371953897104     -2.1209841641400913      2.0711275874190007
   196      1.4674756241870988     -4.4412305428711907     0.37583451887416952
   197     -2.3435880918938783     0.81584826934129706      6.3753097800983936
   198    -0.28980874027328074      4.5086357757156836      2.4375915195210358
   199      2.0972139998421166     -1.2939338017143922      4.9291817867259544
   200      -1.045240281450786    -0.60147241593496981     -6.6519963913803286
   201      3.9257375451695213       0.458061559558397     -3.1059849931659138
   202      4.5543888230908349      5.6630259740676729     -0.2198263758110193
   203      -1.185934979162933     -4.8919111736079568     -3.4135044121816556
   204     0.27148438759014382     -1.7546843745793215    -0.98989508855160424
   205       -1.29913693371011      2.0625364942817934     -1.6431469765831619
   206       4.583976093480298      1.1704990003723568    0.043878481901333886
   207     -1.3849687449111177     -1.1865135892156511      3.2826855596704667
   208     -1.2054790136077498      4.3797337353907215      8.9163079574926858
   209      2.5375282048301733      1.0635192359144658       -1.75991566643075
   210      1.1732250332395835      4.7997158733295544      3.8625603127480388
   211     0.12230821835198305     0.31544916147488516      1.7405296225844027
   212     -4.0264067549270015     -5.4438046109334675     0.28791603901997498
   213      7.5757445845273974     -1.6510738989306133      4.4021173646304641
   214     -2.5401109165586977     0.39341443688530109     -1.3829651991801326
   215    -0.74517734495291232     -4.6314485681922388     0.67254640407568489
   216      4.3147427893000874     -1.4807682973712577     0.18645783361108803
   217      4.4347757759196105      -3.229242198743929     -5.3893977799009338
   218     -1.7505707960317114      -3.284535100428414     -2.0405171506178079
   219      4.9966182497262182      0.4984817269791082    -0.85754545790088466
   220      2.2398140139418521    -0.73091422574971088     -5.4017310368551712
   221    -0.73255876118464025      2.7914210880140748     -5.9563973004760804
   222     0.42319556065679209     -3.1802173906567024      1.1146605529630533
   223     -1.5579948763423468      2.8356502888943229     0.65702833192521493
   224     -1.8573453803966911     -1.4326279900060666     -4.2260123433857801
   225      2.2457049961926354      3.6544292767541657      2.4972165802363007
   226     -2.4362957819147768     -2.0921450567094149     -2.6720360129563523
   227     -8.4612349757194565     -5.8471537140789875     -2.4793513926394688
   228      3.3012954919399982      3.5568235159891266      1.3308134731546986
   229     0.63427446665725296     -2.4573268205867551      5.8521522404210744
   230    -0.94817364568138662      6.2310721086023841      2.4814689514926789
   231    -0.39047150401521696      2.0023857618631657    -0.40353361661269305
   232      2.0679614421219306      5.2059713575462441      6.3296093937155442
   233       10.17956566915111    -0.10840578372581698      2.3099373552886657
   234   -0.051443196772721883     -4.1545356914007288      4.1616223714810117
   235      -6.576989543325503      4.2477354862033234     -7.6774421379099529
   236      2.0803334642881355      3.0817823454179494    -0.41404453301452521
   237      4.0851460747566897      2.6534441544620146      -1.436454812356069
   238    -0.20026342761613442     -3.2585984148762988     -2.4586260237221982
   239        3.23030204908678       4.548095027889743      2.2144805364222768
   240      3.8014712077842669    0.081857298157868644      2.5416868351578117
   241     -1.0307895851528461   -0.055568969285059874     0.17439132556304207
   242       1.978138826860687     -1.2054515430709836      3.9795730944069554
   243     -3.4038335515594529     -4.9932275466795666      1.3336303100907838
   244     -1.3211905030739948      4.0248638756357158    -0.34139375352469947
   245     -7.6376109759447894      3.6247575360912676      2.1291991346443648
   246      3.1814540952008428      2.0570734264236248     -1.6012731968108926
   247       1.016133611491868     -5.2747169012413275     -2.9236395868574721
   248    -0.45186933504649446      1.2311302227577654      2.1090889338450998
   249       2.651516844799513     0.17613145416287207      2.3093632647956839
   250     -4.7334083346753033      2.4005035957412502     -1.6857492737207689
   251      2.7875287819190224      2.1332191242398197     -2.2115426476935114
   252     -3.6402635629490763    -0.47581750520492072     -4.5366664210814625
   253    -0.12507623473749294      1.8159611300978389     -4.7063451500875004
   254    -0.39169745652065052     -6.1043724052398147     -3.7505533909212772
   255     -1.9296610753505234      4.0674281460381234     -3.8908847740258183
   256      2.3135402182333182     -5.0008882800284615     -4.4173892820465568
   257     -3.5091828846655981      1.4343623847585063     -2.1894685506712528
   258      6.5762588553569374     -1.8513762771594315     -2.3348759084325934
   259      -4.514176917028542     -4.4689354693612886     -5.6200131807923155
   260      4.2916067595689009     -4.2373064786787538     -4.0935726681473774
   261     -0.7389382234011016     0.15867230629962856      3.1115941923932642
   262      7.1852082798328061    -0.94647318434175964     0.30736503040983459
   263     -2.3259477992411797      4.3740555066280704      2.2971555430828463
   264     -2.1169846272931347      4.3683610663311745     -3.0173615299650338
   265     -1.1459114634307939     -1.5191191402388737      1.1105346194738446
   266     -5.4262818497054912     -2.1852623892930825     -4.9400776179773107
   267       0.591983539949545      1.4937374868935305     0.66190845809130205
   268      2.9017576491656527     -3.5625063327999316      1.2493538327365432
   269      3.9527191279193086     -7.5368531466582578      3.7808791316718646
   270     0.25108022397474944    -0.44469147259006953      5.6602814467861569
   271      5.6153821947636624       1.307254435603441      2.4716318125013137
   272      6.8462240342048251      1.3670267260870321      1.3779046606356578
   273      1.5007609114828566      9.5227884813890498      2.5576052142258123
   274      1.1326498203112019     0.44839503995955687     -3.3737130502235413
   275      5.6537237067767947      4.1447826591518249     0.43713864496963828
   276      3.7780793114014743      4.2172942199537884      8.2388022750530396
   277     -1.2912357915445432      2.9197529001632132     0.40386901526698615
   278     -3.9578337520748859      2.3845670661609808      -1.098806145516559
   279     -2.6358736031786365     -2.8219281378842962       2.717384464149998
   280     -2.3055976038486365     -7.2942231518944993   -0.041121593405727928
   281     -4.3039157155641439     -4.5225334865781948        1.28306876974261
   282     -0.5843850550861116      1.8344959249999178      2.1330431754534946
   283      1.0921544352829606     0.83763535740036155    -0.70335178189099568
   284       3.826016039497484     0.33116375856368285     -6.2173124218040092
   285      1.6181211108427811    -0.41890470186429324      4.3398620789869335
   286    -0.17839718450817055     -3.0768995582087766     -2.4035688162191917
   287      1.5459987933402577      2.0651975044225712     0.86419113493521249
   288    -0.60490100878518893     -3.3726867216257497      1.4574919687029513
   289     -6.0414127332544822    -0.93501765743285381       1.723724730288746
   290      3.4454857261996592     -6.6063258289927642     0.47767062568716451
   291     -2.9349477153325054      2.2145139398678464     0.70767072184907731
   292     0.39005660362075772      6.5623450492709381     -1.7543758461392596
   293      1.3561103146746389     -3.8008190042851449     -6.6786045134982777
   294     -8.3926938448065744    -0.40238786848089236     0.19604829058735582
   295      1.1085494213260196      1.0970246939382045      5.7041449523131158
   296      6.9714415780684833     0.49951031988376671     -1.5519900411626923
   297     -3.1372319818673442     -2.2888671665439841     -1.7969334162277075
   298     0.63375173416537711      2.8260454233544277     -1.4432154361990457
   299       5.286921150715548     -3.1414417099345275      2.1190504258548044
   300     -2.8087166268655337    -0.92359907022644094      5.8533452599357041
   301     -5.6343138211811041     -3.8347461524169946     -3.5252219012335866
   302     -1.3302027583997849     0.53743485604494068     -2.2230225865124815
   303       -2.34373423227491      1.5085958005062441     -2.7683961468984095
   304     -2.8946934298618032    -0.52678081611078609      0.3775172215833863
   305      3.3236487066795339     -4.2712810972401751     0.13810588096097087
   306     -2.0811581072155163    -0.99007425263664772     -2.6352711424439463
   307      8.5775317107358919      4.8110388833694664     0.99617405281588933
   308      -5.219223296646665     -2.3136304468706723     -4.5731295832600347
   309     -2.0515665981143196     -7.7903151133720812      -2.364753252122815
   310     -1.3245579873344722      3.6408052670794198      2.9553652464743148
   311      5.9737281645525435      2.7494115269697503      0.5685074633828181
   312       2.564744310668214     -1.1288325931796721      5.2133538495501899
   313     -3.0631468668361119     -1.5577475336396711     -1.7741201469035528
   314     -1.5304644183851308     -1.9297437454196162     -3.8405649699944031
   315     -0.6835462289142672     -1.9829264166813285       6.463164325588834
   316    -0.56102673071264553      5.6110275990240597     0.17517435117861388
   317       2.421367608268707     -2.5774305865307019     -2.2905931604066709
   318      2.1932178986654582     -4.3217795533503978      4.9823236396030515
   319      5.4741579152228752     -1.5323802327239366      1.7819290016869915
   320     -4.3800518842411762      1.0121608772856887      2.7191613957771992
   321    -0.52584538463939068      4.6325531238270194      3.3178178066948774
   322     0.61307367510774724    -0.19924913441428455      3.5013665156105076
   323     -0.1947916402463527     0.68638760437664459      2.0947206219676766
   324     -2.9283588183654201      2.2139359483649894     -2.6316237283466406
   325      3.5698030387525841      2.0771096034201935      4.8195347452095154
   326     0.67712042571477482     -2.6291785968046786      3.4109814769909548
   327     -3.5211887302711089      4.1348870469128842    -0.49163698863851474
   328     -1.7996896951805141    -0.63216154789820111    -0.97895102072783158
   329     0.63943911956776023      5.0878742122842429    -0.48809989974373491
   330      4.4626335277504205      3.7293753599163706     0.56102726014830651
   331     -2.1295022194592157     -5.2492006546589884     -0.3535195347032607
   332    -0.65496908866085013     0.89560709881443212     0.78947676940342482
   333      2.2346207533007352     -2.9673213144927599      4.7200464725601039
   334    -0.32912403998640666    0.070634601603149619    -0.39621781214342877
   335      2.1898134533618152    -0.61169522345239313      2.4887540903417804
   336    -0.89249308497302615     -3.9582343146910088     -1.2191965014699013
   337      1.6100099952773095     -2.0769575935129856      3.4685905157107668
   338      5.1630552068106921     -2.7684956337765056    -0.42227589455174197
   339      5.1550134005859185     -8.3198699172497985      -4.000541602297579
   340     -4.9580653943070319     -5.0284891181390021      -5.689602011288839
   341     -2.5089009733237173     -3.7393052636177191     -1.7520140439200595
   342      2.5938657693148737     0.84771843367381428    -0.43383352285320487
   343        4.61904123819048     -1.4065359374200317     -1.5719343126119236
   344     -5.7669065118453648      -3.203430709503003    -0.19419283176072152
   345     -4.4536240507052645     -1.0873907771912197   -0.086160487053922027
   346     -4.9892938293236888      2.9650964933142929     0.40808091839781385
   347     0.90768717867029769      2.2776155571170813     -3.2387641950580628
   348      1.2071622194446385     -1.2747108935695566      6.3123314118069844
   349     0.51603287284487998     -2.3876075157551404     -0.6781291710042614
   350     -7.8805810398549019       2.746502342488951    -0.31223814482961559
   351      5.2584482707931324     -6.4572807884185552      4.9675362345847756
   352      -3.841920777630758     0.85894802009212912     -3.0701520670249853
   353     -3.0616481613976054       4.619563556982901     -4.5793649289875393
   354     -5.5051994468316243     -1.4781890124519024     0.82648423973665519
   355      5.5481183402215972     0.10933368723094354     0.50113434835946458
   356     -3.4204133426316381      1.4209198525790376      6.4004667896099976
   357     -2.1137791257549847     0.43342913374525177     -2.7519774190451405
   358      -1.786643081303692      1.5159020405530568      3.3318980906466416
   359      3.1656618328083579     -1.2151728222701725     0.89799642605584395
   360      1.7338224449988637      4.5802383386914958      8.4700948796324909
   361      1.9729527275265595     -4.7848842618296494        0.58068027681931
   362     -1.1436297797589772     0.41953719225280806     -2.6623828866000281
   363     -3.6585932122009868      3.0159598750598322       6.296271175609963
   364    0.056607402450095275      1.6740600933477052      1.3214095537592736
   365      -1.095390718912342     -2.0071378098438122      4.4605303915387831
   366      0.9048242136667749      4.0716535427275051      3.7464744902762313
   367      1.3795756788908344      2.1664603773976756      3.1456935006364755
   368     0.81710656595988962      5.2352496638343782     0.77287257623130201
   369      2.1935938901232515    -0.36586438027405688     -3.1846552259521088
   370    -0.88414937948632355     -3.6035314882483163      1.4089705524945626
   371      -3.145979740476712     -1.0471921146236778      2.3889888989196901
   372     0.35923390934967153      4.9796261728328091     -3.3003927414746763
   373   -0.026676558729188733    -0.48979305234005993      1.1980457489734135
   374      4.4227270736515703     0.82232792441541847      4.8683655274843991
   375      5.6126118210156548      -2.980094392973101      3.6608773981981257
   376      -3.755237338711007      5.9275100903992355      3.8501262581270415
   377      1.9384772015228229     -2.7139915614682883    0.095091205792649611
   378     -5.6956194756942304     -2.0712872623511123      0.9476047789791251
   379    -0.06194428018116678     0.26847047510150029    0.076754841489997006
   380     -1.0175782200097716    -0.84127803126290213     -3.2906600018237113
   381    -0.56078939906833536    -0.49068045723411458    0.035841880746921649
   382    -0.44902527088806793     -4.5216557753444873      -1.956181070675574
   383     -2.4978417674142923      -4.602011748116098      1.4155593479191984
   384     0.73403290306741187     -0.6885236851194515     -6.3478394965249691
   385     0.25982032184301596     -1.2670651560380917     -3.1358183260463899
   386      5.8401167446079354     -2.6875230887694292     0.57122864773173232
   387      1.8422496409220199      1.3017272322748494      7.6527433092221386
   388      3.0598995653374339     -1.4449401816756187      1.9966095006077178
   389      2.2578223514676208     -3.9222972530826685     -1.6086538876529148
   390     -6.4522380683469667    -0.90733856137800784     -5.1346115610840704
   391     0.13793610280553867    -0.67148662027452344      9.0679058268966592
   392    -0.76040738642019856    -0.27785112805930523       -3.11211247516303
   393     -6.1140253785569216      2.1088664925090295    0.025997464525456551
   394      2.4142206115351286     -1.9467250006405665     0.69997889370794963
   395      9.3427863409639471     -4.6619398052718148     -3.4404904730241426
   396     -1.2232390345887194     -1.7522827948326021     -1.8641524538606544
   397      12.035016857108316       -4.71287056316394    -0.79925255187159061
   398      0.9911620479415022     -6.2685110438291298      3.1963039048527251
   399     -4.4010623597961418     0.15538882297417406        7.33803053895112
   400     -4.4003401609250457     -1.5394562433832293     -6.6939267325174425
   401      20.838874018011648      7.4993334104989628      9.2835129388497784
   402    0.052864097899919679      -26.33477867047413      24.754814902035541
   403    -0.46604371385923982     -17.121201108410848     -28.451063667391807
   404     -21.361480539729524     -15.393151100684369      9.4202708181263439
   405      14.167506688359403     -4.8706669863292964      5.8992032268395667
   406       33.41722801274512      4.1554066478455587     0.31266709934839593
   407      29.058583349986382     -34.736615030203737     -29.681594880669795
   408     0.21003144339355526      19.484209237849576      3.4879463987849615
   409      9.0921494644272389     -9.5724541235687397      15.282565811888912
   410     -3.2139409130231806      1.9984801424251062      3.4864141949963399
   411     -16.799999276856774     -1.4470024203948599     -38.724080566794235
   412      23.955623617212439     -6.1578012570201848     -30.824243760111258
   413      5.0118757557694762      16.515198374026426      13.084209660204708
   414     -7.5244401238710479      6.5970541811015728     -12.088864664206913
   415     -43.573947842726383     -3.9609979817810337     -10.589737874187852
   416     -27.256300942864755      3.5527502184761564     -13.910818694998293
   417     -17.356679916915617      3.0875691981817943     -11.489798766903876
   418     -24.000557166066063     -15.456141157127981     -16.463482793105086
   419      7.4032259497186361     -41.838557805605085     -10.438544943556346
   420     -9.8150684505632313      6.8246760726279039      18.819421810047853
   421     -13.960262889004381      3.5738981906753216      20.526856546980703
   422      14.493645110416345     -19.673296559826557      8.8694785412707375
   423     -36.017286670556523     -8.6405686145987151      4.0409727301629639
   424      36.346019550856553     -31.293622091052967      21.208288741336531
   425     -37.272927652976058      20.580805221285274      19.607360671442038
   426      11.697091791880517      12.850655737752145     -36.458396677802511
   427     -30.591509003458139     -16.540370658035847      38.079837169098518
   428       26.03927283215063      22.821825685868529     -3.3979378553815667
   429     -7.1771476124402422     -3.1966707461274222      25.318492651760558
   430     -36.963277443769051     -10.294058106719135      22.515759088302655
   431      19.119127008052715      34.254969417757508       11.56717942536446
   432     -33.164672998969401     -21.137912065988328      9.6946655709247498
