(written by ASE)

444 atoms
3 atom types

0.0      22.960000000000001  xlo xhi
0.0      20.293964620053913  ylo yhi
0.0      40.146982310026956  zlo zhi

Masses

1      55.844999985634189 # Fe
2      14.006999996396779 # N
3      1.0079999997406976 # H

Atoms # atomic

     1   1                       0      2.0293964620053915                       0
     2   1      2.8700000000000001      2.0293964620053915                       0
     3   1      5.7400000000000002      2.0293964620053915                       0
     4   1      8.6099999999999994      2.0293964620053915                       0
     5   1      11.479999999999999      2.0293964620053915                       0
     6   1      14.350000000000001      2.0293964620053915                       0
     7   1      17.219999999999999      2.0293964620053915                       0
     8   1                   20.09      2.0293964620053915                       0
     9   1      1.4350000000000001       4.058792924010783                       0
    10   1      4.3049999999999997       4.058792924010783                       0
    11   1      7.1750000000000007       4.058792924010783                       0
    12   1                  10.045       4.058792924010783                       0
    13   1      12.915000000000001       4.058792924010783                       0
    14   1      15.784999999999998       4.058792924010783                       0
    15   1      18.655000000000001       4.058792924010783                       0
    16   1      21.525000000000002       4.058792924010783                       0
    17   1                       0      6.0881893860161744                       0
    18   1      2.8700000000000001      6.0881893860161744                       0
    19   1      5.7400000000000002      6.0881893860161744                       0
    20   1      8.6099999999999994      6.0881893860161744                       0
    21   1      11.479999999999999      6.0881893860161744                       0
    22   1      14.350000000000001      6.0881893860161744                       0
    23   1      17.219999999999999      6.0881893860161744                       0
    24   1                   20.09      6.0881893860161744                       0
    25   1      1.4350000000000001      8.1175858480215659                       0
    26   1      4.3049999999999997      8.1175858480215659                       0
    27   1      7.1750000000000007      8.1175858480215659                       0
    28   1                  10.045      8.1175858480215659                       0
    29   1      12.915000000000001      8.1175858480215659                       0
    30   1      15.784999999999998      8.1175858480215659                       0
    31   1      18.655000000000001      8.1175858480215659                       0
    32   1      21.525000000000002      8.1175858480215659                       0
    33   1                       0      10.146982310026955                       0
    34   1      2.8700000000000001      10.146982310026955                       0
    35   1      5.7400000000000002      10.146982310026955                       0
    36   1      8.6099999999999994      10.146982310026955                       0
    37   1      11.479999999999999      10.146982310026955                       0
    38   1      14.350000000000001      10.146982310026955                       0
    39   1      17.219999999999999      10.146982310026955                       0
    40   1                   20.09      10.146982310026955                       0
    41   1      1.4350000000000001      12.176378772032349                       0
    42   1      4.3049999999999997      12.176378772032349                       0
    43   1      7.1750000000000007      12.176378772032349                       0
    44   1                  10.045      12.176378772032349                       0
    45   1      12.915000000000001      12.176378772032349                       0
    46   1      15.784999999999998      12.176378772032349                       0
    47   1      18.655000000000001      12.176378772032349                       0
    48   1      21.525000000000002      12.176378772032349                       0
    49   1                       0      14.205775234037741                       0
    50   1      2.8700000000000001      14.205775234037741                       0
    51   1      5.7400000000000002      14.205775234037741                       0
    52   1      8.6099999999999994      14.205775234037741                       0
    53   1      11.479999999999999      14.205775234037741                       0
    54   1      14.350000000000001      14.205775234037741                       0
    55   1      17.219999999999999      14.205775234037741                       0
    56   1                   20.09      14.205775234037741                       0
    57   1      1.4350000000000001      16.235171696043132                       0
    58   1      4.3049999999999997      16.235171696043132                       0
    59   1      7.1750000000000007      16.235171696043132                       0
    60   1                  10.045      16.235171696043132                       0
    61   1      12.915000000000001      16.235171696043132                       0
    62   1      15.784999999999998      16.235171696043132                       0
    63   1      18.655000000000001      16.235171696043132                       0
    64   1      21.525000000000002      16.235171696043132                       0
    65   1                       0      18.264568158048522                       0
    66   1      2.8700000000000001      18.264568158048522                       0
    67   1      5.7400000000000002      18.264568158048522                       0
    68   1      8.6099999999999994      18.264568158048522                       0
    69   1      11.479999999999999      18.264568158048522                       0
    70   1      14.350000000000001      18.264568158048522                       0
    71   1      17.219999999999999      18.264568158048522                       0
    72   1                   20.09      18.264568158048522                       0
    73   1      1.4350000000000001  1.1848980747714435e-15                       0
    74   1      4.3049999999999997  1.1848980747714435e-15                       0
    75   1      7.1750000000000007  1.1848980747714435e-15                       0
    76   1                  10.045  1.1848980747714435e-15                       0
    77   1      12.915000000000001  1.1848980747714435e-15                       0
    78   1      15.784999999999998  1.1848980747714435e-15                       0
    79   1      18.655000000000001  1.1848980747714435e-15                       0
    80   1      21.525000000000002  1.1848980747714435e-15                       0
    81   1                       0                       0      2.0293964620053906
    82   1      2.8700000000000001                       0      2.0293964620053906
    83   1      5.7400000000000002                       0      2.0293964620053906
    84   1      8.6099999999999994                       0      2.0293964620053906
    85   1      11.479999999999999                       0      2.0293964620053906
    86   1      14.350000000000001                       0      2.0293964620053906
    87   1      17.219999999999999                       0      2.0293964620053906
    88   1                   20.09                       0      2.0293964620053906
    89   1      1.4350000000000001      2.0293964620053915      2.0293964620053906
    90   1      4.3049999999999997      2.0293964620053915      2.0293964620053906
    91   1      7.1750000000000007      2.0293964620053915      2.0293964620053906
    92   1                  10.045      2.0293964620053915      2.0293964620053906
    93   1      12.915000000000001      2.0293964620053915      2.0293964620053906
    94   1      15.784999999999998      2.0293964620053915      2.0293964620053906
    95   1      18.655000000000001      2.0293964620053915      2.0293964620053906
    96   1      21.525000000000002      2.0293964620053915      2.0293964620053906
    97   1                       0       4.058792924010783      2.0293964620053906
    98   1      2.8700000000000001       4.058792924010783      2.0293964620053906
    99   1      5.7400000000000002       4.058792924010783      2.0293964620053906
   100   1      8.6099999999999994       4.058792924010783      2.0293964620053906
   101   1      11.479999999999999       4.058792924010783      2.0293964620053906
   102   1      14.350000000000001       4.058792924010783      2.0293964620053906
   103   1      17.219999999999999       4.058792924010783      2.0293964620053906
   104   1                   20.09       4.058792924010783      2.0293964620053906
   105   1      1.4350000000000001      6.0881893860161744      2.0293964620053906
   106   1      4.3049999999999997      6.0881893860161744      2.0293964620053906
   107   1      7.1750000000000007      6.0881893860161744      2.0293964620053906
   108   1                  10.045      6.0881893860161744      2.0293964620053906
   109   1      12.915000000000001      6.0881893860161744      2.0293964620053906
   110   1      15.784999999999998      6.0881893860161744      2.0293964620053906
   111   1      18.655000000000001      6.0881893860161744      2.0293964620053906
   112   1      21.525000000000002      6.0881893860161744      2.0293964620053906
   113   1                       0      8.1175858480215659      2.0293964620053906
   114   1      2.8700000000000001      8.1175858480215659      2.0293964620053906
   115   1      5.7400000000000002      8.1175858480215659      2.0293964620053906
   116   1      8.6099999999999994      8.1175858480215659      2.0293964620053906
   117   1      11.479999999999999      8.1175858480215659      2.0293964620053906
   118   1      14.350000000000001      8.1175858480215659      2.0293964620053906
   119   1      17.219999999999999      8.1175858480215659      2.0293964620053906
   120   1                   20.09      8.1175858480215659      2.0293964620053906
   121   1      1.4350000000000001      10.146982310026955      2.0293964620053906
   122   1      4.3049999999999997      10.146982310026955      2.0293964620053906
   123   1      7.1750000000000007      10.146982310026955      2.0293964620053906
   124   1                  10.045      10.146982310026955      2.0293964620053906
   125   1      12.915000000000001      10.146982310026955      2.0293964620053906
   126   1      15.784999999999998      10.146982310026955      2.0293964620053906
   127   1      18.655000000000001      10.146982310026955      2.0293964620053906
   128   1      21.525000000000002      10.146982310026955      2.0293964620053906
   129   1                       0      12.176378772032349      2.0293964620053906
   130   1      2.8700000000000001      12.176378772032349      2.0293964620053906
   131   1      5.7400000000000002      12.176378772032349      2.0293964620053906
   132   1      8.6099999999999994      12.176378772032349      2.0293964620053906
   133   1      11.479999999999999      12.176378772032349      2.0293964620053906
   134   1      14.350000000000001      12.176378772032349      2.0293964620053906
   135   1      17.219999999999999      12.176378772032349      2.0293964620053906
   136   1                   20.09      12.176378772032349      2.0293964620053906
   137   1      1.4350000000000001      14.205775234037741      2.0293964620053906
   138   1      4.3049999999999997      14.205775234037741      2.0293964620053906
   139   1      7.1750000000000007      14.205775234037741      2.0293964620053906
   140   1                  10.045      14.205775234037741      2.0293964620053906
   141   1      12.915000000000001      14.205775234037741      2.0293964620053906
   142   1      15.784999999999998      14.205775234037741      2.0293964620053906
   143   1      18.655000000000001      14.205775234037741      2.0293964620053906
   144   1      21.525000000000002      14.205775234037741      2.0293964620053906
   145   1                       0      16.235171696043132      2.0293964620053906
   146   1      2.8700000000000001      16.235171696043132      2.0293964620053906
   147   1      5.7400000000000002      16.235171696043132      2.0293964620053906
   148   1      8.6099999999999994      16.235171696043132      2.0293964620053906
   149   1      11.479999999999999      16.235171696043132      2.0293964620053906
   150   1      14.350000000000001      16.235171696043132      2.0293964620053906
   151   1      17.219999999999999      16.235171696043132      2.0293964620053906
   152   1                   20.09      16.235171696043132      2.0293964620053906
   153   1      1.4350000000000001      18.264568158048522      2.0293964620053906
   154   1      4.3049999999999997      18.264568158048522      2.0293964620053906
   155   1      7.1750000000000007      18.264568158048522      2.0293964620053906
   156   1                  10.045      18.264568158048522      2.0293964620053906
   157   1      12.915000000000001      18.264568158048522      2.0293964620053906
   158   1      15.784999999999998      18.264568158048522      2.0293964620053906
   159   1      18.655000000000001      18.264568158048522      2.0293964620053906
   160   1      21.525000000000002      18.264568158048522      2.0293964620053906
   161   1    0.012776698483592433      2.0006748334020745      4.1590232015981163
   162   1      2.8614446860866836      2.0709174679953359      3.9271885468804957
   163   1      5.6567584291709938      2.0161533759626398      4.0546294671175254
   164   1      8.4980631033901854      2.0232002859353413      4.0311647899026184
   165   1      11.326931320991083        1.89793548633662      4.0672670530317525
   166   1      14.310138804032242      2.0320423854044636      3.8426296512686555
   167   1      17.370840621571574      1.8196604209683465      4.1679964211254754
   168   1      20.112205860595928      1.8396128394841769      4.1371106933794835
   169   1      1.5107993596076781      4.0199276166652256      4.0934068720631505
   170   1      4.3443752220507372      4.1007740635003387      4.1605154984024386
   171   1      7.1992564433914898      4.0130110966130639      4.1324197688440156
   172   1      10.121812183415292      3.8658496211073783      4.0568000294535462
   173   1      12.721384815232902      3.9470703747865263      4.2221357160001913
   174   1       15.84792339813273      3.9442392331225391      3.9613731110273989
   175   1      18.669972168812567      3.8433429234157739      4.1061591777177879
   176   1      21.513502820187036      4.0135602789798508      4.2495350844184214
   177   1    0.083811062293558738      5.9127682665007661      4.0492819076877833
   178   1      2.9043144477096381       6.085912053310258       4.073797615334537
   179   1      5.9907122892388678      6.1921047390974753        3.99349547769312
   180   1      8.5686484172053117      6.0848870159935746      4.0476810851322309
   181   1      11.559183684924093      5.8811256298587091      4.1149849230250952
   182   1      14.234289643986372      5.8174610149934916      4.1954928990602873
   183   1      17.125750753287587      5.9297356787349518      4.0123875671817881
   184   1      20.132555294644114      5.8059241526380712      4.0999632809735749
   185   1      1.3478968184409503      8.1631824160889206      4.0681852625881474
   186   1      4.5599428057476947      8.2143907965841372      4.2253813546414749
   187   1      7.2136583546369542      8.3436225724434649      3.9896798712671049
   188   1      10.102209157688749      7.9643463648168114      4.0238570875935649
   189   1      12.897473499230459      8.0021814180782869      4.0845861427211876
   190   1      15.719972549398245      7.7627658719128467      4.1554807519148342
   191   1      18.671742231335106      7.9533521717102378      4.2083563370368013
   192   1      21.372223572140424      7.9178292218446868      4.2310096322123618
   193   1      22.921237395902477       10.11913695608769      4.1658651155540589
   194   1      2.7314612720336102       9.999164543564671      4.3093421858143905
   195   1      5.7153869430994346      10.228668902940681      4.1534012472243722
   196   1       8.570741719941017       10.14772649967856      4.1110907500845206
   197   1      11.439290778706724      10.031454211261297       3.939385765480766
   198   1       14.24747478429132      10.033067234446767      4.0212272949057848
   199   1      17.188231246183275      10.023012802110795      4.0318540783521692
   200   1      20.285961023913643      9.9002739148538801      4.1129323609442148
   201   1      1.4753017940856661      12.105724378156115      4.1317269526594611
   202   1      4.3575140305533431      12.188827932827014       4.179104365557607
   203   1      7.1318465956162154      12.137635552940298      4.2057829468982195
   204   1      9.8525935009901549      12.181604684037071      4.0969556597970005
   205   1      13.036741858575098      12.200394887448253      4.0345641623614235
   206   1       15.74991806781903      12.082821171190714      4.0242717400961485
   207   1      18.698688807544585      11.865809568149317      4.0226849599700838
   208   1      21.516279179368539      12.125920146517137      3.9911339633284308
   209   1    0.037715416010733804       14.18648223773644      4.1461250048682032
   210   1      2.8559379469103914      14.019933865823571      4.0637703368841143
   211   1      5.6684285061383992       14.17406850077516      4.0874003585266845
   212   1      8.4050625185260603      14.200324273501959      4.0945756436297973
   213   1      11.513184674357989      14.106955867070408      3.8562731750436186
   214   1      14.296080370093401      14.152823626165214      4.0394587947169827
   215   1       17.10798643793439      13.875430260692415      4.0260135712230927
   216   1      19.878776635618994      13.935634619685004      4.0778552805674781
   217   1      1.4187485824229025      16.078427419644509      4.0496181921296319
   218   1      4.2586054409944989      16.355517588861897      4.2019614526089324
   219   1      6.9871300439981638      16.211574083173797       4.119361828913819
   220   1      9.9444308946761168      16.126439073947914      4.0164752656872764
   221   1      12.892049985814817       16.22878961366002      4.1811095129442171
   222   1      15.914383328504918      15.996330116334457      4.0750083427788715
   223   1      18.581453705770713      16.197346807577542      4.1573591805651127
   224   1      21.385903940194535      16.219135452557932      4.0928081659079423
   225   1     0.11330072335015845      18.156288748197934       4.368012272907718
   226   1      2.8020107394167066      18.152712216649672      4.1932258000633098
   227   1      5.7419523835632944      18.308311860907587      4.1222426956287004
   228   1      8.6143740122789829      18.264047080605355       3.916288558620439
   229   1       11.65683592472501      18.201496736410032      3.9600909325197624
   230   1      14.425394986400386      17.940626061916394      4.0732942427453107
   231   1      17.395713030060605      18.269734542230012      4.2159563114388945
   232   1      20.215195289445099      18.157303755757603      4.2603707534593767
   233   1      1.5216650054897347      20.166501812278671      4.2328996860128321
   234   1      4.3193624762897205      20.271604833235234      3.9140935154297947
   235   1      7.2602298107693493    0.011396512399208802      4.1365856828606065
   236   1      10.124786846895072      20.152721532899339      4.1593749430162967
   237   1      13.020739858061289      20.081366416221861      4.1751578882497684
   238   1      15.912629841837079      20.244221076930629      4.0148365583330259
   239   1      18.608623989000048      20.090486953774565      3.9786220124103591
   240   1      21.713553268807321      20.095894218848766      4.3284601500361886
   241   1     0.10016244481531972        20.2171181961758      6.3956766483873189
   242   1      2.8347735048303626      20.196372859883805      6.3241861764215228
   243   1      5.6028619998028963      20.081580310273566      6.2438704877362605
   244   1        8.61754114389786      20.172986704374257      6.3288767561641688
   245   1      11.542442718823768      20.180675105572554      5.9914066183353638
   246   1      14.297177712425112      20.209700944306284        6.00773668621206
   247   1      17.363441303199107      20.121412886940924      6.1431739942070038
   248   1      20.281268036719577      20.118805263800827      6.2082772509426283
   249   1      1.4851919096177639      1.8490702686632583      6.2476494104256428
   250   1      4.4172252898252529      1.9720455306547002      6.3713725490071615
   251   1      7.1600901541809945      1.8728319473061916      6.2438179970634247
   252   1       9.985299444247584      1.8974416818193083      6.0996690108664779
   253   1       12.86035625805912       1.973242652649376      6.1063648201842762
   254   1        15.7895854305215      1.9045981856293364      6.1321729928849722
   255   1      18.655758490428941      1.8578384480483103      6.2407939325925659
   256   1       21.62779920992752      1.8949649728161999      6.2246279609570729
   257   1    0.072120351374784106      3.9019567323416342      6.2370575005732087
   258   1      3.1243372678081904      3.9265002518317358      6.1823585290363781
   259   1      5.6351405432880401      3.9804351070282591      6.2093563177650921
   260   1      8.5359056011593033      3.9614379370622341      6.1686412908909949
   261   1      11.179706722264465       4.096468362308233      6.0754067868101096
   262   1      14.369843184706278      4.0377930620175482      6.0125516395644665
   263   1      17.246134080888101      3.8572269496770626      6.2288341317272202
   264   1      20.179334666756553      3.7176241764714648      6.1663756915168388
   265   1      1.5717748358548798      5.8843446734951597      6.0686039712070663
   266   1      4.4368116090389318      6.2040282608918096      6.1561206792378114
   267   1      7.1753007317662219      6.2443903782041259      6.2089412573837768
   268   1      9.8033083913167172      6.1278621893414043      6.0411770252946049
   269   1      12.683458377093963      6.1875192564844399      6.3017182101318765
   270   1      15.932850208591031      5.8675921515257805      6.1154718266445673
   271   1      18.733660124717655      5.7016338545828917      6.0626348896335092
   272   1      21.525681829511022      5.6499196177946498      6.2695526596293973
   273   1    0.034563693434098042      7.7965463839752998      6.2261304894174501
   274   1      2.8774562880043932      8.0882198096333209      6.1112679361260698
   275   1      5.8490697877156039      8.0859301006153057      6.3262693275157105
   276   1      8.4349680419173119      8.2284289135467628      6.2172384989940053
   277   1      11.387777893294723        8.20571681848776      6.1886499389053249
   278   1       14.30431487327383      7.9396358774989606      6.3848003096070514
   279   1      17.292199953092531      7.8201442281827136      6.1379053930098353
   280   1      20.156890796409389      7.8251240171548417        6.18573036370978
   281   1      1.2993171802439996      9.8146261968843493       6.187848563725642
   282   1      4.2039453282408461      9.8998733661851102      6.2928992050404959
   283   1      7.1173335582854911      10.145708999969584       6.226237508003976
   284   1      9.6975116775637424      10.001825225702468      6.2214303657494581
   285   1      12.848259680432495      10.021897470470444      6.2417309607082272
   286   1      15.773133858337205      9.8026150848863089      5.9477196937086481
   287   1      18.594256756897124      9.8756283967790708      6.1810530352154602
   288   1      21.600033586713678      9.8272219633592854      6.0868242571127906
   289   1    0.060163856669002924      11.942648083202734       6.045901047300946
   290   1      2.9498337180480334      11.957914293082274      6.0844951978111279
   291   1      5.5344709725727279      12.239601883646754      6.1784327469065792
   292   1       8.586446302013707      12.161791563789556      6.2740287954186043
   293   1      11.384000811682441      12.263441694433677      6.1450747665648793
   294   1      14.418154977979052      12.034893289190961      6.2166072856573269
   295   1      17.439562911130437      11.985927206847359      6.0464315217333118
   296   1      20.322805765940512      11.996298340285716      5.9654857932643788
   297   1      1.5261309845135753      14.089645122704139      6.0627424746741765
   298   1       4.152419052214678      14.196275939112159      6.0611912333637692
   299   1      7.2737889091870098      14.064505603728117      6.1517505706585585
   300   1      9.8783694512802747      14.203142263820173      6.1002002775727924
   301   1      12.927152289753108      14.047659784265614      6.1922285174066021
   302   1       15.92325806684851      14.016664857565187      6.0036376903404554
   303   1      18.605564940504696       13.96872289186199      6.0635379378202199
   304   1      21.574429793379768      14.120576362483103      6.1777461812235428
   305   1       22.94201629724693      16.155508433350292      5.9740405639252669
   306   1       2.670306314696298      16.210617355514536      6.0645273055656546
   307   1      5.8170380244301194      16.084253365027539      6.1796541331416419
   308   1      8.6692921905069831      16.118332401681243      6.3806327458801668
   309   1      11.593935371889335      16.209362903595579      6.0643736452389092
   310   1      14.254974395791407      16.147429134875392      5.9811773238162651
   311   1      17.317188844740819      16.113165021860024      6.1142883105831833
   312   1      20.177050791830247      16.081830678170331      6.1795503690737581
   313   1      1.5163873812080788      18.285185246803369       6.227701237745622
   314   1      4.3304371853429968      18.062202921105296      6.2937130074631931
   315   1      7.3250087615259849      18.039774169524527      6.1587193363699271
   316   1      10.141220640821754      18.178154285165373      6.1170812426633399
   317   1       13.06890601424554      18.215250758855454       6.175289462181806
   318   1      15.813310256167227       18.09853846047552      6.2017785847330176
   319   1       18.78842438270123      18.139591154974603      6.3628204996987137
   320   1      21.616708223843169      18.153899639862562      6.3478109306500565
   321   1      22.840645184429697      2.1078810531280041       8.318530445922276
   322   1      2.8854490978213621      1.9155838862515744      8.1905563773297487
   323   1      5.8917253014784645      1.8411647737332189       8.279209769307089
   324   1      8.7116065609730455      1.8741936548186415      8.1464559959741578
   325   1      11.307324078263314      1.8229862357776341      8.0499001644113051
   326   1      14.334345687483244      2.0436753456411809      8.1304418075407217
   327   1       17.20510037545921      1.8939532210054422      8.3847089761787768
   328   1      20.029584695823441      1.8331942165499255      8.1161229494981182
   329   1      1.5950680206227221      4.0434628324121586      8.2418299144464022
   330   1      4.3300652141904008       4.029756949491218      8.2128858267828733
   331   1      7.1358287785499668      3.9656214789068454      8.0590474901211735
   332   1      10.137516241939247      3.9776664887469311       8.164617466957111
   333   1      12.853503538955971      4.0478957675409628      8.1677534700939169
   334   1      15.845333469041577      3.8169338491656122      8.3268508474507552
   335   1      18.806269474886292      3.7473834246283526      8.1487102590514482
   336   1      21.398923649743487      3.8823396684606402      8.4983928911316831
   337   1    0.082126776524156814      5.7343501696007406      8.1726265092385226
   338   1      3.0001730810800158      5.9794838601444145      8.1310875763896941
   339   1      5.7980994185482411       6.134274562132509      8.2124491139014264
   340   1      8.5987928808964949      6.0204239646263877      8.1332604044604206
   341   1      11.479036595328203      6.2046218182410504      8.2013419682952104
   342   1      14.511388877156531      5.9047872479543049      8.1790490779207001
   343   1      17.404590934493456      5.8128847377364323      8.4986192119056785
   344   1       20.04058289465922      5.8840749420061407       8.203502860042331
   345   1      1.2916046417336025      7.8064410208726027       8.013962215285007
   346   1      4.4090281798184456      7.9766041161261461      8.3001142288033414
   347   1       7.213107696303477      7.9450806244395862      8.5253469098783015
   348   1      9.8116113411719486      8.0163601214921254      8.3306226177131197
   349   1      12.767052522835598       7.988958657296509      8.3074019025156662
   350   1      15.652890743719391      8.0557162792393111      8.2562539492031863
   351   1      18.463877493967821      8.0920286866274829      8.2181445900509527
   352   1      21.645042660985766      8.0465159529484751      8.3743137580315032
   353   1      22.956300570037019      9.9976587808669031      8.3340176548802489
   354   1      2.8247638127134436      9.9419050529290978      8.3341809400035523
   355   1      5.7458187142441277       9.898581079808654      8.4583275083957794
   356   1      8.4136500949894639      10.085295441073717      8.5174085601598399
   357   1      11.476543054105377      10.025247294483751       8.160598295439522
   358   1       14.49546285011386      10.022910838718026       8.260102152040945
   359   1      17.288690139270646      10.097716125247191      8.2303716879894306
   360   1       20.22650381719243      9.8550944675609227      8.4788203359412044
   361   1      1.3555938437799182      12.020803386604143      8.0698545003718891
   362   1      4.2454848120107087      11.941902895837478      8.2530936887827746
   363   1      6.9843330818434968      12.049477131820041      8.2602508916513084
   364   1      9.8633310421164069      12.086447164471801      8.2183207726178402
   365   1      12.921311423444655      12.001037297366944      8.1389072512608376
   366   1      15.869877769673231      12.094592561504166      8.2516825268976906
   367   1      18.739099088026119      11.928313664177734      7.9292966874929967
   368   1      21.416061252529769      11.908471830153701      8.1878318656094358
   369   1     0.11753426386551435      14.123640113557673      8.4263489305703327
   370   1      2.6771518027980989      14.066250826253684      8.1857935076133899
   371   1      5.4808198756936912      14.045996299099041      8.2818236206837081
   372   1      8.5353768170920628       14.13169580532271      8.2512765570992705
   373   1       11.70950876866404      14.116202347802984      8.2957267419126808
   374   1      14.537435057003414      14.118733402201327      7.9736444439592331
   375   1      17.298500162184393      14.156253393961196      8.0957850929286241
   376   1      20.148143267641935      14.023958778428408       8.171969286430329
   377   1      1.2838584732084877      16.067897121109862      8.0553716522759427
   378   1      4.1098960948771497      16.117368972358904       8.085864299107584
   379   1      7.1988021850514325      16.163700875861817      8.3968564448956258
   380   1      10.176403369337187      16.127393652287434      8.3031151336508433
   381   1      12.723727496613058      16.132623937663737      8.2297590308624446
   382   1       15.87255166699914      16.222247085507249      8.0866008075078906
   383   1      18.804230022337475      15.979965400681605       8.191079507553793
   384   1      21.434073286077858      15.963206694839409      8.2123326879637037
   385   1      22.914575542819325       18.12432688962468      8.2991523597046992
   386   1      2.7290378848881578      18.194669322329929      8.3651499475072608
   387   1      5.7037957196583911      18.200936177179528       8.237592095052884
   388   1      8.7912306214610396       18.13369002770802      8.2677715312845717
   389   1      11.594175614173603       18.16168709280894        8.12102098286989
   390   1      14.385301858879171       18.28852172605399      8.2883938191759583
   391   1      17.256132980003652      18.170034221442371      8.4474441773436748
   392   1      20.050208345829304       17.82568919406447      8.3437273686081355
   393   1      1.3515353440491233     0.12336216685244603      8.5054950288580411
   394   1      4.1061004679639685      20.155948529567443      8.2415877611451531
   395   1      7.4576021403437478      19.849517908056857      8.5040214211030118
   396   1       10.21121929873652      20.077641286180977      8.0012562290000666
   397   1      12.936555020346729      20.146516848792007      8.1730573997392977
   398   1      15.657938422566295    0.010410813612008529      8.2532690422051385
   399   1       18.72520694734267       20.17709836931224      8.1733537491166395
   400   1      21.557710150185109      20.172874936187629      8.5588546263271645
   401   3      9.8280912354825993      2.4409814131130192       31.77503596160302
   402   3      9.3288965583387569      1.8607174088919203      32.051082622563285
   403   3      21.935709204190271       4.013293719132184      26.697006995768355
   404   3      22.396133492213306      3.8625532829523372      27.170698374518022
   405   3     0.14097498733156755      17.323482618128917      18.818946205681396
   406   3    0.044079349071235896      18.040346773280788      18.763281289795838
   407   3      8.3508932571384911      8.1302793185442379      39.399415964984655
   408   3      8.7538975365546641      8.4995176280201523      38.764311238650443
   409   3      11.429438141785754       2.981248566141395      36.395899217855018
   410   3      11.494873128123922      2.5972880444758548      35.683284289412718
   411   3      1.2102758483227127      8.1647275548387839      38.814475917091734
   412   3      1.6811088842466302      8.4071585641185749       39.27676387065614
   413   3      5.1671036801810351      12.662022089208801      18.987053282476975
   414   3      5.5155556159305084      12.699060407877557      18.333960008577755
   415   3      10.368052132255897      13.932378802437473      31.705552943950376
   416   3      9.8274884016954189      13.431216485325089      31.578273767862179
   417   3      15.883249717584853      10.423573791163227      27.171616178038182
   418   3      15.773355370961264      11.050242393518827      27.459755295139235
   419   3      5.6264596405092506     0.73184885687153389      39.507969111941385
   420   3      5.3981830005320113      1.3777066952536372      39.398687997376491
   421   3      14.918312240481191      19.360541472078069      28.849933705663634
   422   3      15.146186566900154      18.976458585787427      29.630463756436669
   423   3      11.777736320323278      7.3359719898543094      15.776734211960095
   424   3       11.89736985955272      6.7723474015649137      16.204591739698021
   425   3     0.30546331875774663      7.6124407641081966      26.323131252476085
   426   3    0.088342108257364771      6.9161718486981894      26.491249442629563
   427   3      6.7621297613556939      14.759639416850234      33.413359137113076
   428   3      6.5201121537348454      15.468016197172453      33.481888812554025
   429   3      4.2115132493936018      2.3461466907114024      33.608993625229083
   430   3      4.4865829579827858      1.6643642794972071      33.970688384239573
   431   3      8.6680851016807043      18.430101865321731      30.318701562061239
   432   3      8.0996768980804532      18.949759712055922      30.535913990419861
   433   2                       4                       4      27.450999999999997
   434   2                       4                       4      28.548999999999996
   435   2                      12                       4      29.450999999999997
   436   2                      12                       4      30.548999999999996
   437   2                      19                       4      31.450999999999997
   438   2                      19                       4      32.548999999999992
   439   2                       4                      12      33.450999999999993
   440   2                       4                      12      34.548999999999992
   441   2                      12                      12      35.450999999999993
   442   2                      12                      12      36.548999999999992
   443   2                      19                      12      27.950999999999997
   444   2                      19                      12      29.048999999999996

Velocities

     1    -0.49465708671865372      -3.710091712231474     -3.2175176292943748
     2      0.5561666614224654      1.2993831435531062     -3.8773466298086361
     3      2.6380919508335494      1.5003722235287713     -1.6674365652764664
     4    -0.91222708316131751       3.811804433146011     -2.0094421427719746
     5     -1.2289655585582377      1.4706605178979477     0.35047148952941981
     6     0.91281422623056097     -1.9897804887892974     -4.1753817300649443
     7     0.19989869925461654      2.1991736406384756     -2.7107594781749351
     8      3.7220968892184838     -2.1244025312941655     0.50499334462011225
     9   0.0053788480601918614    -0.49972939891200774     -1.7922817840078902
    10      1.3687096380300954     -4.7670422957794667     0.63151147252461204
    11      3.5296287887701814    -0.48317076525684177     -7.2244526506367031
    12    -0.79992398539263121      1.2701354623806649     -6.8811592302909093
    13      -1.586578899452862     -2.4107290690058805     -7.1960620259306323
    14     0.59757083095641816      5.1440350568873061    -0.31370922201080287
    15     -2.6702693996047322      11.959381852284922     -7.4730755180831538
    16      1.1984531128344451     -2.0286468356025473     -1.7278441194780214
    17    -0.59257041049254588     -1.3012459805529868      6.9087097422363213
    18     -8.1017631789919626     -1.8399975198952006     -1.4935393001483792
    19      9.5837137824595029      7.7405492721797025      1.8335581989229943
    20      2.9598171776633482      2.4092422064324346        2.30724182784141
    21     -5.5248660647070871    -0.25488517185248805      3.6445961453553739
    22      3.2908407005286033     -3.0551398198387876      6.6996544285372757
    23      2.2886257740026936      -6.530048490633364      4.1453216594700679
    24      3.0525953939032484    -0.64070805096224215     -3.8291641273045389
    25      5.5403322584774015      4.1082892338399484      1.8563413770918171
    26     -4.5073277698360839      1.3389185169400444     0.82070607485128755
    27    -0.95082296261138766     -2.3192920636961358      1.7567634915117933
    28      4.5369784435036093     -6.5832203386564423      4.0178267343085157
    29      -5.133983692792075      3.4916372249323095      1.8550540579522303
    30     -6.0940469742825911     -1.6472135658910045     -4.4303661942033727
    31      5.3420579361586862      1.2393746780253427      1.4268832078602804
    32    0.097578257822404327      6.0485809626583533     -3.3057572047069708
    33    -0.72158867410969429    -0.29148217856082537     -2.5048796722111852
    34     -2.9502725471706719     -3.8010116783071077     0.23860932915614222
    35      2.8962886871282438      2.5286159445564644     -1.5915116289344711
    36     -1.2915459128695721     0.16004422699339696       1.114294669562049
    37     -5.0891873522583913     -4.1322860073399967     -2.6546758598397369
    38     -5.0900015587426584     -1.9559000054319124       2.817281967346009
    39    -0.56887581302628476     -1.0003692437917269   0.0048851664670646359
    40      2.3180231344475071      -1.952860051387872     -1.8674249251082149
    41      -6.224463521345279     -5.8224832552309191    -0.35776514600938208
    42    -0.44054368888726553     -1.9778438220230978     0.88638529159629942
    43     0.44387266037768786    0.073040750813379129      4.5114804866842366
    44     -1.1559813388013598    -0.44968885470796266     0.47317586899167696
    45      3.7013653409501313      3.4473577084645188      5.6388313838538702
    46     0.37267376073015723      1.0672870102866163      2.5277387151715276
    47     0.21375676906720525    -0.71116466071762452      2.9831692249032855
    48      5.3963595309873753      3.5092906124420216     -3.8434322070121589
    49     -2.2971650460971635      2.0726587567378734    0.053521609840180985
    50    0.056235190885092184      3.1322919963156464       0.822183098034032
    51      0.6403108404305492     -3.5434215012448598      1.8306772198152725
    52     -7.2557515678967759     -6.9659753525422108     -5.8571298648792878
    53     -5.1486666031639556     -2.5431917648060751      4.0895763497880369
    54      2.5066376102659982     0.28332498070460993     -2.0367958080966431
    55     -2.9344354055685642     0.22284290158958953      4.6749432353455553
    56    -0.86852262064045449      4.4883315026930992      -1.108194928853419
    57     -1.4641193435171092    -0.57286828716871063      0.5548087608944815
    58     -0.8678473392175412     -2.0663943805566141      2.2329890348130625
    59      4.0859180163272466    0.071065785351611149     -1.7483633289712874
    60     0.42147117057728151      1.9362291567316632       4.107813251111228
    61    -0.40260676961008401     0.75104045340419745      4.6267381878145368
    62     -1.7233546427069324     -2.1257621167044363     -3.1499821012429519
    63      3.6809993939186398     -2.2530268528168329     -5.0282048256778724
    64      10.347817169207874    -0.12625583267724361    -0.26264786210098329
    65     -2.9009447747131549      2.0725608070027737     0.17496726773631979
    66      2.8842848642849308      -1.729603508118581      -2.561724280827713
    67     -5.0251036507571287     -1.2170790218339982     -2.4945034919772868
    68    -0.19145951907862208     -4.3133770667355984     -3.2026450784833775
    69     -1.0324069403242533     0.58942540613157501     -1.0594943912374462
    70     -3.3019886042435118     -1.4825483118230882     -3.4303112813373007
    71     -4.0185789913897354      2.8144814745196292     -3.6968493174712913
    72      1.7568769126140669      0.3521260830392437     -1.5749522018296553
    73     -6.6100399473810842       4.862184772785171      3.3051657442826761
    74     0.99664363683109791      4.0239085113372566      2.9825861008311794
    75      1.8820588234372952     -2.2915026690591627   -0.033597095861723804
    76       1.530181562967764     -3.2260217094963579     -4.5940211766602266
    77      2.7004998435917984      1.8739362975998093      4.3295533483043149
    78     -4.6816195057898602     -5.7722275337659266     -1.5827544811317253
    79      3.1487613518477913     -3.0136672894153573      1.1390311495663585
    80     -3.1155923903669498      5.3758300825286343     -1.4040626929774758
    81     -1.9804203633155948     -1.8909402852726431      3.6123603751456077
    82     -4.1237677528868897      2.0072126359992644      4.2314771563980065
    83      1.5786898351568281     0.24750147757257321     -1.4966805304727682
    84      2.6875136354828415     -4.2349419036654421    -0.34425427737209835
    85      1.2558452207966284     -1.0910023857506463     -3.3805416171662568
    86      5.6914562790050427      4.3780372476089982     -4.8631564346013798
    87      0.9565426843697683       1.190947356627998     0.92581501971628988
    88     -4.1118087385053528      9.1342449878758281      2.6677411454210178
    89      2.7450659314468076      1.4486848636315306     0.15960047137832092
    90      8.4992203148381247      1.5864777670001509      -4.622784616270927
    91      1.5901739154865688     -2.8792057308971009      3.2516127464414391
    92     -3.3326851629831791     0.12686797704678476     -1.2749975399130624
    93     -2.9282537590867168     -1.6328259832966345     -1.3051823469584583
    94      3.1719720958090667      3.1759121658470146      1.7718932896010866
    95     0.54008794416642936     -1.8351050989676345    -0.55847713755082917
    96     -2.5769644552779556     0.34739420463392684    -0.26186825529548557
    97    -0.48453159665072443      3.7732277514086987      4.0839883873156166
    98     0.35059322651890379    -0.97625292255354745      1.1100920626386976
    99     -0.4135164577487831    -0.53596211681443862      2.5662269727550489
   100     -1.4755385478203782     0.84425009159074815      1.2295477616810735
   101      1.8091695946826087    -0.68246664214003205     -2.1904603387817945
   102   -0.090461872478029365      1.8742166263495317     -2.4048961267108431
   103      1.0030277156622558     0.25415034764173744      -4.082965798531542
   104     -0.3329969748653705    -0.64510191820409424     -2.0419414730934298
   105     -3.4779408643659693     -4.7270606399732147     -1.9904412812485213
   106    -0.76790465798106022      1.6256347128938138      3.5220696756862471
   107      5.0588439489219033      2.9848082285851105      5.0039443846861191
   108      6.3901718325702515     -3.3704524146370334     -2.7858650840417902
   109     0.21466015687540535     -3.7034170850599137      5.2472496306538474
   110     -1.4219387504949752      8.5944324810827535      2.5704425740690944
   111    -0.47981252011925013      2.0228338294538046      1.2885645737242415
   112      -6.268753142313118     -3.7911577702472794      1.0351555296981707
   113     -1.8687061977843455     -2.5193146146655616      2.9930801227421426
   114     0.23451854432996014     -5.2136017423105905     -3.4095501591672477
   115    -0.24218321698128109      2.4055562063081335    -0.11323524925243375
   116     -1.2828453954756354      2.0564846464838773      5.9513808789864733
   117     0.66253243882791701      0.2965292223918462     -3.2867936796426092
   118     -2.0719338835168588    -0.51760851327447222     -4.8874086534461556
   119      3.9463819438908763       3.409960600546305      4.1773636669185823
   120     -1.2445465154667192     0.50306670619175353      1.5010946312419657
   121      5.6657882836091975     -2.2669263264165131     -4.8815277283699618
   122   -0.023191363686456242     -4.2355208384039829      3.8160278828265937
   123   -0.018640015633908283       2.139582406257162   -0.084473180497457862
   124     -2.3427607240741386     -2.6242152838119925    -0.18871724917298321
   125       2.225624979527292     -2.0433985118474687      3.9163762936035145
   126     -4.5276387758977172    -0.02269299522119695      4.8350485082906225
   127      6.6095815120642403      3.6552985593262126     -4.9923888090110067
   128     -5.1225743103224062     0.33873788569468133     0.30276471372356262
   129     0.69977115069332951     0.29263875602930101      2.3612448878837027
   130      3.3133718325532291     -2.1191417262248304      1.5799601391661522
   131     0.69276302572924042      3.2796748635517021        1.54010274480609
   132     -1.9012550822896019     -2.2882519684759237      4.2368620759174345
   133     -2.9058358414075882     -4.0831606812762899     0.75112217670555481
   134    0.053547426563234538     -2.7721181607209413     -5.9685338810459836
   135      2.4508418131410723     0.36030921359551776     -3.7548998885327105
   136     0.54435287890648643    -0.71336540182757202      5.4405472124651739
   137     -4.5861260796680963     -1.1302629116091591      2.9044479031833119
   138      0.8200446076385226    -0.59068302408913653   -0.044204887604506769
   139      2.3190695170951652      4.1903550749869938    0.062801007520726385
   140      2.7040973474081111   -0.092900506461359833      1.3255072163100883
   141      4.2505979416345774      7.1786876239494868     -10.259108807555192
   142     -1.8052116020412754      -1.029461789116898      2.0064540302808567
   143     0.97898340005755935     0.42088961925153939      3.0006897325284618
   144      1.2302465760155774     -1.9953709715079659     -1.2552491710620197
   145    -0.79165646032383363     -4.7596078994023463     -1.8254030709922235
   146     -3.2844945565057593      4.1255370754199818  -0.0025984916860137697
   147     -2.0332991625381078      2.2707014459136139    -0.20782476892018462
   148      2.6660636151865402     -1.1775729217364554      7.1826508811806544
   149    -0.53111740770624627     -1.8277609675394915      -2.604770332455014
   150     -1.2013296972735985     0.51855339697175096      4.2667839739712443
   151     -2.4629495323482562    -0.16938718431631425     0.92042993591322353
   152      3.2354074489330173      1.0603178821832007      1.1138777287786976
   153    -0.68169459507874264     0.53048337506764887      -0.816078134001192
   154     -5.2070701406304645    -0.30846015309408004     0.18955626559301833
   155     -1.1479223002806029      2.7661456871326311      -1.861386143495366
   156     0.81684467643483383     -2.5885403307471448     -3.3284155537794353
   157      4.7702704585074382    -0.37908640101116514      3.6410697051979746
   158     -1.4083432506742923      2.0896058476131807     -5.4247564899339746
   159     0.39615828277303083     -2.7518558689813855    -0.46264570327030202
   160     0.69900918645937893    -0.50584684838660499      5.0606363045600409
   161     -5.4611680678162298     -6.0607882428736142     -1.2606540924553036
   162     -0.9838701739870267      2.6092950786808515     0.50982489172906209
   163      5.1088919646049415       4.084529016147072     -2.0518341517414052
   164      2.4821701237714193      6.2740821749530173      4.5643526398319247
   165     0.83456377037582974     -3.5896095397954602      2.3783080003388992
   166     -1.1232668917031623     0.29204776220309103     -4.4808316309392646
   167      6.3893512760556543       3.040221869666702    -0.64739165021838463
   168     -9.4419459870082587      1.3163825654586394     -4.4436015574630643
   169     -2.5718970925225535     -5.8063739942732839      2.6415020079617944
   170      2.5784373550154869     -6.0829267202348136    -0.64997435776067658
   171      3.3884120715503725     0.65442524129675805       2.758575349938865
   172     -3.6476607498904858      2.8650706486687194     -5.8660336790260716
   173     -5.9410297847401665      4.8506040982711625      1.5391132053816015
   174      3.6749068597113621      1.8863235474295688     -2.0983466849054562
   175     -1.1004278051962282      6.2230299714783106      6.5750406548472231
   176     0.71409574793538189     -3.6036002483061282    -0.62239073305584935
   177     -1.9442687874590465    -0.30921411039192059      -3.036551680160553
   178      -6.045704175857475     -2.7968757775172031      3.5321330070395489
   179     -3.0817838547817176     -1.6228809870102601    -0.37164097371055432
   180      -3.187107217589876      -1.180750637705055      0.7645300847845159
   181      1.9292468053369494     0.17808406570285548      1.9057930833637731
   182    -0.24626987154288713     0.79275222943515544      -4.826726056979429
   183     -2.2002617701531655     -2.9997353009039713      4.3202845532412439
   184       0.806224233307132      2.1059816919692023      1.5644509925521359
   185     -1.3168319571729579     -1.7466432241953203     -1.8225396976199251
   186      5.9269549694595893        2.68620401864198      5.8180942930911437
   187     -3.9877738444617559     -4.3371536196427103      1.9747775747790721
   188     0.54190930018929384      3.1252656889803356     -2.8872088571734862
   189     -4.8642644841787046    -0.71633318152800507      1.9354088001127945
   190     -2.5666860025664255     -2.1042138452702273    -0.67581071891846134
   191     0.33861429685819366     -5.7890323866252533      3.9924184812371504
   192      0.7862248615570735     0.22635645263123999      1.1236002093009843
   193     -1.4500416195664398      2.3846186336724844     -3.7879274932868445
   194      1.3475414953954528     -1.6645934854229876     -5.0458242192981242
   195     -10.004371956470671     -2.1209841646857019      2.0711275879517861
   196      1.4674756245645983     -4.4412305440136715     0.37583451897085068
   197     -2.3435880924967525     0.81584826955116929      6.3753097817384035
   198    -0.28980874034783233      4.5086357768755043       2.437591520148092
   199      2.0972140003816127     -1.2939338020472491       4.929181787993957
   200      -1.045240281719668    -0.60147241608969504     -6.6519963930915136
   201       3.925737546179394     0.45806155967623069     -3.1059849939649093
   202       4.554388824262424      5.6630259755244534    -0.21982637586756834
   203     -1.1859349794680079     -4.8919111748663724     -3.4135044130597594
   204     0.27148438765998162     -1.7546843750307037    -0.98989508880624899
   205     -1.2991369340443053       2.062536494812369     -1.6431469770058516
   206      4.5839760946594996      1.1704990006734608    0.043878481912621364
   207     -1.3849687452673927     -1.1865135895208747      3.2826855605149179
   208     -1.2054790139178522      4.3797337365173821      8.9163079597863533
   209      2.5375282054829373      1.0635192361880499     -1.7599156668834779
   210      1.1732250335413887       4.799715874564253      3.8625603137416591
   211     0.12230821838344612     0.31544916155603264      1.7405296230321436
   212     -4.0264067559627712     -5.4438046123338548     0.28791603909403968
   213      7.5757445864762136     -1.6510738993553422      4.4021173657628818
   214     -2.5401109172121261     0.39341443698650469     -1.3829651995358923
   215    -0.74517734514460487      -4.631448569383652     0.67254640424869339
   216      4.3147427904100297     -1.4807682977521768     0.18645783365905319
   217      4.4347757770604312     -3.2292421995746321     -5.3893977812873244
   218     -1.7505707964820358     -3.2845351012733417     -2.0405171511427187
   219      4.9966182510115686     0.49848172710733968    -0.85754545812148297
   220      2.2398140145180307    -0.73091422593773425     -5.4017310382447343
   221    -0.73255876137308662       2.791421088732152     -5.9563973020083285
   222     0.42319556076565673     -3.1802173914747942      1.1146605532497931
   223     -1.5579948767431322      2.8356502896237772      0.6570283320942315
   224     -1.8573453808744824     -1.4326279903746015     -4.2260123444728963
   225      2.2457049967703298      3.6544292776942466      2.4972165808786948
   226     -2.4362957825414999      -2.092145057247607     -2.6720360136437176
   227     -8.4612349778960603     -5.8471537155831346     -2.4793513932772671
   228      3.3012954927892371      3.5568235169040983      1.3308134734970423
   229     0.63427446682041633     -2.4573268212188881      5.8521522419265057
   230    -0.94817364592529896      6.2310721102052895       2.481468952131022
   231    -0.39047150411566345      2.0023857623782679    -0.40353361671649968
   232      2.0679614426539015      5.2059713588854493      6.3296093953437973
   233      10.179565671769744    -0.10840578375370373      2.3099373558828833
   234   -0.051443196785955346     -4.1545356924694588      4.1616223725515642
   235      -6.576989545017395       4.247735487296028     -7.6774421398849295
   236      2.0803334648232892      3.0817823462107197    -0.41404453312103562
   237      4.0851460758075691       2.653444155144598     -1.4364548127255883
   238    -0.20026342766765098     -3.2585984157145544     -2.4586260243546652
   239      3.2303020499177557      4.5480950290597146      2.2144805369919389
   240      3.8014712087621731    0.081857298178925952      2.5416868358116456
   241     -1.0307895854180107   -0.055568969299354669     0.17439132560790321
   242      1.9781388273695517     -1.2054515433810788      3.9795730954306765
   243     -3.4038335524350694     -4.9932275479640458      1.3336303104338523
   244     -1.3211905034138633      4.0248638766710885    -0.34139375361252094
   245       -7.63761097790952      3.6247575370237155      2.1291991351920885
   246      3.1814540960192543      2.0570734269527948     -1.6012731972228107
   247      1.0161336117532624     -5.2747169025982172     -2.9236395876095611
   248    -0.45186933516273525      1.2311302230744665      2.1090889343876507
   249      2.6515168454816003     0.17613145420818085      2.3093632653897536
   250     -4.7334083358929453      2.4005035963587655      -1.685749274154418
   251      2.7875287826360977      2.1332191247885777     -2.2115426482624176
   252     -3.6402635638855125    -0.47581750532732198     -4.5366664222484925
   253    -0.12507623476966806      1.8159611305649843     -4.7063451512981791
   254    -0.39169745662141231     -6.1043724068101293     -3.7505533918860849
   255     -1.9296610758469173      4.0674281470844456     -3.8908847750267244
   256      2.3135402188284631     -5.0008882813149116     -4.4173892831829038
   257     -3.5091828855683156      1.4343623851274876     -2.1894685512344805
   258      6.5762588570486402     -1.8513762776356875     -2.3348759090332263
   259     -4.5141769181897873     -4.4689354705108961     -5.6200131822380301
   260      4.2916067606728916     -4.2373064797687761     -4.0935726692004248
   261     -0.7389382235911891     0.15867230634044607       3.111594193193703
   262      7.1852082816811604    -0.94647318458523433     0.30736503048890246
   263     -2.3259477998395157      4.3740555077532699      2.2971555436737758
   264     -2.1169846278377165      4.3683610674549094      -3.017361530741232
   265      -1.145911463725573     -1.5191191406296582      1.1105346197595229
   266     -5.4262818511013702     -2.1852623898552284     -4.9400776192481155
   267     0.59198354010182941      1.4937374872777858     0.66190845826157407
   268      2.9017576499121129     -3.5625063337163652      1.2493538330579319
   269      3.9527191289361228     -7.5368531485970696      3.7808791326444728
   270     0.25108022403933833    -0.44469147270446374      5.6602814482422303
   271      5.6153821962081869      1.3072544359397247      2.4716318131371264
   272      6.8462240359659763      1.3670267264386917      1.3779046609901155
   273      1.5007609118689187      9.5227884838387311      2.5576052148837412
   274      1.1326498206025695     0.44839504007490388      -3.373713051091408
   275      5.6537237082311824      4.1447826602180458     0.43713864508208961
   276      3.7780793123733636      4.2172942210386628      8.2388022771724216
   277     -1.2912357918767059      2.9197529009143031     0.40386901537087905
   278     -3.9578337530930163      2.3845670667743963     -1.0988061457992202
   279     -2.6358736038566999     -2.8219281386102208      2.7173844648490291
   280     -2.3055976044417381     -7.2942231537708944   -0.041121593416306217
   281     -4.3039157166713009     -4.5225334877415904      1.2830687700726717
   282    -0.58438505523644124      1.8344959254718312      2.1330431760022073
   283       1.092154435563911     0.83763535761583829    -0.70335178207192872
   284      3.8260160404817043     0.33116375864887276     -6.2173124234033743
   285       1.618121111259033    -0.41890470197205409      4.3398620801033374
   286    -0.17839718455406217     -3.0768995590002906     -2.4035688168374958
   287      1.5459987937379569      2.0651975049538311     0.86419113515752055
   288    -0.60490100894079624     -3.3726867224933534      1.4574919690778825
   289     -6.0414127348086009    -0.93501765767338185      1.7237247307321639
   290      3.4454857270859907     -6.6063258306922021     0.47767062581004238
   291     -2.9349477160875037      2.2145139404375169     0.70767072203112136
   292     0.39005660372109752      6.5623450509590624     -1.7543758465905623
   293      1.3561103150234903     -3.8008190052628832     -6.6786045152163078
   294     -8.3926938469655461    -0.40238786858440428     0.19604829063778809
   295      1.1085494216111873      1.0970246942204076      5.7041449537804736
   296      6.9714415798618452     0.49951032001226287     -1.5519900415619325
   297     -3.1372319826743786      -2.288867167132782      -1.796933416689958
   298     0.63375173432840604       2.826045424081411     -1.4432154365703043
   299      5.2869211520755774     -3.1414417107426456      2.1190504263999177
   300     -2.8087166275880597    -0.92359907046403156      5.8533452614414427
   301     -5.6343138226304976     -3.8347461534034606     -3.5252219021404283
   302     -1.3302027587419716     0.53743485618319264     -2.2230225870843405
   303     -2.3437342328778219      1.5085958008943214      -2.768396147610563
   304     -2.8946934306064462    -0.52678081624629736     0.37751722168050039
   305      3.3236487075345233     -4.2712810983389371     0.13810588099649779
   306     -2.0811581077508818    -0.99007425289133866     -2.6352711431218538
   307      8.5775317129424131      4.8110388846070782     0.99617405307214912
   308     -5.2192232979892799     -2.3136304474658402     -4.5731295844364448
   309      -2.051566598642073     -7.7903151153760941     -2.3647532527311337
   310     -1.3245579876752067       3.640805268015995      2.9553652472345648
   311      5.9737281660892503      2.7494115276770206     0.56850746352906323
   312      2.5647443113279791     -1.1288325934700576       5.213353850891294
   313     -3.0631468676240887     -1.5577475340403926     -1.7741201473599342
   314     -1.5304644187788339     -1.9297437459160316     -3.8405649709823657
   315    -0.68354622909010543     -1.9829264171914247      6.4631643272514427
   316    -0.56102673085696642      5.6110276004674633     0.17517435122367644
   317      2.4213676088915901     -2.5774305871937306     -2.2905931609959125
   318      2.1932178992296509     -4.3217795544621493       4.982323640884724
   319      5.4741579166310697     -1.5323802331181324      1.7819290021453822
   320     -4.3800518853679193      1.0121608775460613      2.7191613964766868
   321    -0.52584538477466136      4.6325531250187169      3.3178178075483662
   322     0.61307367526545686    -0.19924913446554021      3.5013665165112138
   323    -0.19479164029646173     0.68638760455321379      2.0947206225065309
   324     -2.9283588191187233      2.2139359489345116     -2.6316237290236097
   325      3.5698030396708953       2.077109603954518      4.8195347464493121
   326     0.67712042588896015     -2.6291785974810193      3.4109814778684093
   327     -3.5211887311769141      4.1348870479765605    -0.49163698876498541
   328     -1.7996896956434736    -0.63216154806082103     -0.9789510209796608
   329      0.6394391197322522      5.0878742135930679    -0.48809989986929564
   330      4.4626335288984071      3.7293753608757303     0.56102726029262751
   331     -2.1295022200070179     -5.2492006560093145    -0.35351953479420145
   332    -0.65496908882933702     0.89560709904482194     0.78947676960651292
   333      2.2346207538755785     -2.9673213152560862      4.7200464737743077
   334    -0.32912404007107188    0.070634601621319959    -0.39621781224535341
   335      2.1898134539251317    -0.61169522360974815      2.4887540909819972
   336    -0.89249308520261483     -3.9582343157092414     -1.2191965017835324
   337      1.6100099956914751     -2.0769575940472706      3.4685905166030411
   338      5.1630552081388572     -2.7684956344886849    -0.42227589466036997
   339      5.1550134019120151     -8.3198699193900367     -4.0005416033266945
   340      -4.958065395582465     -5.0284891194325523     -5.6896020127524558
   341     -2.5089009739691175     -3.7393052645796332     -1.7520140443707544
   342      2.5938657699821306     0.84771843389188473    -0.43383352296480604
   343      4.6190412393787001     -1.4065359377818547     -1.5719343130162942
   344     -5.7669065133288679     -3.2034307103270669    -0.19419283181067643
   345     -4.4536240518509338     -1.0873907774709444   -0.086160487076086298
   346     -4.9892938306071555      2.9650964940770468     0.40808091850279016
   347     0.90768717890379491      2.2776155577029842      -3.238764195891215
   348      1.2071622197551739     -1.2747108938974685      6.3123314134307931
   349     0.51603287297762646     -2.3876075163693384    -0.67812917117870608
   350     -7.8805810418821371       2.746502343195472    -0.31223814490993701
   351       5.258448272145837     -6.4572807900796532      4.9675362358626449
   352     -3.8419207786190692     0.85894802031308848     -3.0701520678147625
   353     -3.0616481621851963      4.6195635581712571     -4.5793649301655543
   354     -5.5051994482478044      -1.478189012832158     0.82648423994926334
   355      5.5481183416488182     0.10933368725906899     0.50113434848837835
   356     -3.4204133435115192      1.4209198529445608      6.4004667912564788
   357     -2.1137791262987422     0.43342913385674886     -2.7519774197530702
   358     -1.7866430817632954      1.5159020409430135      3.3318980915037528
   359       3.165661833622706     -1.2151728225827687     0.89799642628684806
   360      1.7338224454448798      4.5802383398697355      8.4700948818113719
   361      1.9729527280340899     -4.7848842630605324     0.58068027696868652
   362     -1.1436297800531694     0.41953719236073156     -2.6623828872849105
   363     -3.6585932131421384      3.0159598758356703      6.2962711772296398
   364    0.056607402464657196      1.6740600937783472      1.3214095540991981
   365     -1.0953907191941248     -2.0071378103601365       4.460530392686227
   366     0.90482421389953571      4.0716535437749144      3.7464744912399892
   367      1.3795756792457223      2.1664603779549849      3.1456935014456859
   368     0.81710656617008548      5.2352496651811151     0.77287257643011886
   369       2.193593890687541    -0.36586438036817337     -3.1846552267713428
   370    -0.88414937971376584     -3.6035314891753032      1.4089705528570118
   371     -3.1459797412859971     -1.0471921148930619      2.3889888995342434
   372     0.35923390944208239      4.9796261741137888     -3.3003927423236825
   373   -0.026676558736051122    -0.48979305246605637      1.1980457492816037
   374      4.4227270747892913     0.82232792462695758      4.8683655287367573
   375      5.6126118224594661     -2.9800943937397126      3.6608773991398653
   376     -3.7552373396770196      5.9275100919240531      3.8501262591174643
   377      1.9384772020214844     -2.7139915621664468    0.095091205817111266
   378     -5.6956194771593953     -2.0712872628839389     0.94760477922289088
   379   -0.061944280197101589     0.26847047517056272    0.076754841509741725
   380     -1.0175782202715378    -0.84127803147931601     -3.2906600026702142
   381    -0.56078939921259507    -0.49068045736033933     0.03584188075614176
   382    -0.44902527100357703     -4.5216557765076564     -1.9561810711787897
   383     -2.4978417680568477     -4.6020117492999386      1.4155593482833426
   384     0.73403290325623749    -0.68852368529657015     -6.3478394981579118
   385     0.25982032190985321     -1.2670651563640369     -3.1358183268530602
   386      5.8401167461102714     -2.6875230894607789     0.57122864787867744
   387       1.842249641395928      1.3017272326097111      7.6527433111907612
   388      3.0598995661245754     -1.4449401820473213      1.9966095011213336
   389      2.2578223520484322     -3.9222972540916565     -1.6086538880667314
   390      -6.452238070006767    -0.90733856161141524     -5.1346115624049187
   391     0.13793610284102195    -0.67148662044725949      9.0679058292293231
   392    -0.76040738661580887    -0.27785112813078078     -3.1121124759636016
   393     -6.1140253801297186      2.1088664930515231     0.02599746453214424
   394      2.4142206121561727     -1.9467250011413506     0.69997889388801504
   395      9.3427863433673242     -4.6619398064710715     -3.4404904739091879
   396     -1.2232390349033906     -1.7522827952833668     -1.8641524543401964
   397      12.035016860204253     -4.7128705643762983    -0.79925255207719348
   398     0.99116204819647291     -6.2685110454416675      3.1963039056749549
   399     -4.4010623609282886     0.15538882301414694      7.3380305408387843
   400     -4.4003401620570077     -1.5394562437792456     -6.6939267342394144
   401      41.677748046744647      14.998666824856244      18.567025882475811
   402      0.1057281958270373     -52.669557354497194      49.509629816807127
   403    -0.93208742795825372     -34.242402225630343     -56.902127349421342
   404     -42.722961090449274     -30.786302209288333      18.840541641099303
   405      28.335013384007819     -9.7413339751644941      11.798406456714201
   406      66.834456042683001      8.3108132978290232     0.62533419885765529
   407      58.117166714923059     -69.473230078279045     -59.363189776610419
   408     0.42006288689516919      38.968418485723546       6.975892799364428
   409      18.184298933532279     -19.144908252062393      30.565131631640515
   410     -6.4278818276998955      3.9969602858784072      6.9728283917863978
   411     -33.599998562356944     -2.8940048415341857     -77.448161153511549
   412       47.91124724674976     -12.315602517208484     -61.648487536081198
   413      10.023751514117503       33.03039675654972      26.168419327141084
   414      -15.04888025161333      13.194108365597252     -24.177729334633401
   415     -87.147895707871044     -7.9219959655999546     -21.179475753823997
   416     -54.512601899752546      7.1055004387801608     -27.821637397153534
   417     -34.713359842761037      6.1751383979521046     -22.979597539719116
   418     -48.001114344480122     -30.912282322207957     -32.926965594680432
   419      14.806451903246145     -83.677115632735607     -20.877089892483198
   420     -19.630136906176197      13.649352148767024      37.638843629778066
   421     -27.920525785191156      7.1477963831893723      41.053713104522224
   422      28.987290228289499     -39.346593129774789      17.738957087104712
   423     -72.034573359643502     -17.281137233642898      8.0819454624049598
   424      72.692039120412701     -62.587244198206129      42.416577493584469
   425     -74.545855325128599      41.161610453159128      39.214721352971829
   426       23.39418358977905      25.701311482115798     -72.916793374362413
   427     -61.183018022655247     -33.080741324581524      76.159674357788646
   428      52.078545677698152      45.643651383478613     -6.7958757125113314
   429     -14.354295228573042     -6.3933414938994932      50.636985316547161
   430     -73.926554906555268     -20.588116218734438      45.031518188189395
   431      38.238254025941991      68.509938853138792      23.134358856680095
   432     -66.329346015001633      -42.27582414285186      19.389331146837286
   433                       0                       0                       0
   434                       0                       0                       0
   435                       0                       0                       0
   436                       0                       0                       0
   437                       0                       0                       0
   438                       0                       0                       0
   439                       0                       0                       0
   440                       0                       0                       0
   441                       0                       0                       0
   442                       0                       0                       0
   443                       0                       0                       0
   444                       0                       0                       0
