# GCMC->MD testbed input, binary H2/N2 mixture on Fe.
# Atom types (must match config `elements: [Fe, N, H]`): 1=Fe, 2=N, 3=H.
# Blocks marked PRODUCTION are the swap points for the real GPU run.

variable        NSTEPS          equal 2000       # PRODUCTION: 200000 (100 ps)
variable        DUMP_FREQ       equal 50
variable        TEMP            equal 723
variable        SEED1           equal 110
variable        TAU_T           equal 0.05       # CSVR time constant [ps]
variable        Z_CELL          equal 40.14698231002696
variable        Z_BOTTOM        equal 2.0        # slab atoms below this z are frozen

units           metal
boundary        p p f

atom_style      atomic
atom_modify     map yes
newton          on

read_data       data_GCMC.lammps

region          rbottom block INF INF INF INF INF ${Z_BOTTOM}
group           bottom region rbottom
group           free_atoms subtract all bottom

# --- PRODUCTION: replace this whole potential block with ---
#   pair_style mace no_domain_decomposition
#   pair_coeff * * /path/to/finetuned.model-lammps.pt Fe N H
# Testbed stand-in: EAM Fe; each diatomic gets its own Morse bond (real
# gas-phase parameters so molecules stay intact); all cross interactions are
# weak LJ physisorption ONLY — no N-H bonding, so no cross-species chemistry.
pair_style      hybrid eam/fs morse 4.0 lj/cut 8.0
pair_coeff      * * eam/fs Fe_mm.eam.fs Fe NULL NULL
pair_coeff      2 2 morse 9.79 2.689 1.098     # N2 bond (De eV, a 1/A, r0 A)
pair_coeff      3 3 morse 4.75 1.930 0.741     # H2 bond
pair_coeff      1 2 lj/cut 0.02 2.8            # Fe-N physisorption
pair_coeff      1 3 lj/cut 0.02 2.5            # Fe-H physisorption
pair_coeff      2 3 lj/cut 0.005 2.7           # N-H: repulsive-ish contact only

# H2 vibration period ~8 fs under Morse -> small timestep in the testbed.
timestep        0.00025          # ps; PRODUCTION: 0.0005
thermo          ${DUMP_FREQ}
thermo_style    custom step temp press ke pe etotal
thermo_modify   flush yes

dump            myDump all custom ${DUMP_FREQ} traj.lammps id type element x y z vx vy vz
dump_modify     myDump element Fe N H append yes

fix             fix_nve free_atoms nve
fix             fix_temp free_atoms temp/csvr ${TEMP} ${TEMP} ${TAU_T} ${SEED1}
fix             fix_wall all wall/reflect zhi ${Z_CELL}

run             ${NSTEPS}
write_data      final.lammpsdata
