LAMMPS data file

502 atoms
2 atom types

0 22.96  xlo xhi
0 20.293964620053913 ylo yhi
0 40.14698231002696 zlo zhi

Masses

1 55.845
2 2.016

Atoms # atomic

1     1     0.0     2.0293964620053915     0.0     0     0     0     
2     1     2.87     2.0293964620053915     0.0     0     0     0     
3     1     5.74     2.0293964620053915     0.0     0     0     0     
4     1     8.61     2.0293964620053915     0.0     0     0     0     
5     1     11.479999999999999     2.0293964620053915     0.0     0     0     0     
6     1     14.350000000000001     2.0293964620053915     0.0     0     0     0     
7     1     17.22     2.0293964620053915     0.0     0     0     0     
8     1     20.09     2.0293964620053915     0.0     0     0     0     
9     1     1.435     4.058792924010783     0.0     0     0     0     
10     1     4.305     4.058792924010783     0.0     0     0     0     
11     1     7.175000000000001     4.058792924010783     0.0     0     0     0     
12     1     10.045     4.058792924010783     0.0     0     0     0     
13     1     12.915000000000001     4.058792924010783     0.0     0     0     0     
14     1     15.784999999999998     4.058792924010783     0.0     0     0     0     
15     1     18.655     4.058792924010783     0.0     0     0     0     
16     1     21.525000000000002     4.058792924010783     0.0     0     0     0     
17     1     0.0     6.088189386016174     0.0     0     0     0     
18     1     2.87     6.088189386016174     0.0     0     0     0     
19     1     5.74     6.088189386016174     0.0     0     0     0     
20     1     8.61     6.088189386016174     0.0     0     0     0     
21     1     11.479999999999999     6.088189386016174     0.0     0     0     0     
22     1     14.350000000000001     6.088189386016174     0.0     0     0     0     
23     1     17.22     6.088189386016174     0.0     0     0     0     
24     1     20.09     6.088189386016174     0.0     0     0     0     
25     1     1.435     8.117585848021566     0.0     0     0     0     
26     1     4.305     8.117585848021566     0.0     0     0     0     
27     1     7.175000000000001     8.117585848021566     0.0     0     0     0     
28     1     10.045     8.117585848021566     0.0     0     0     0     
29     1     12.915000000000001     8.117585848021566     0.0     0     0     0     
30     1     15.784999999999998     8.117585848021566     0.0     0     0     0     
31     1     18.655     8.117585848021566     0.0     0     0     0     
32     1     21.525000000000002     8.117585848021566     0.0     0     0     0     
33     1     0.0     10.146982310026955     0.0     0     0     0     
34     1     2.87     10.146982310026955     0.0     0     0     0     
35     1     5.74     10.146982310026955     0.0     0     0     0     
36     1     8.61     10.146982310026955     0.0     0     0     0     
37     1     11.479999999999999     10.146982310026955     0.0     0     0     0     
38     1     14.350000000000001     10.146982310026955     0.0     0     0     0     
39     1     17.22     10.146982310026955     0.0     0     0     0     
40     1     20.09     10.146982310026955     0.0     0     0     0     
41     1     1.435     12.176378772032349     0.0     0     0     0     
42     1     4.305     12.176378772032349     0.0     0     0     0     
43     1     7.175000000000001     12.176378772032349     0.0     0     0     0     
44     1     10.045     12.176378772032349     0.0     0     0     0     
45     1     12.915000000000001     12.176378772032349     0.0     0     0     0     
46     1     15.784999999999998     12.176378772032349     0.0     0     0     0     
47     1     18.655     12.176378772032349     0.0     0     0     0     
48     1     21.525000000000002     12.176378772032349     0.0     0     0     0     
49     1     0.0     14.205775234037741     0.0     0     0     0     
50     1     2.87     14.205775234037741     0.0     0     0     0     
51     1     5.74     14.205775234037741     0.0     0     0     0     
52     1     8.61     14.205775234037741     0.0     0     0     0     
53     1     11.479999999999999     14.205775234037741     0.0     0     0     0     
54     1     14.350000000000001     14.205775234037741     0.0     0     0     0     
55     1     17.22     14.205775234037741     0.0     0     0     0     
56     1     20.09     14.205775234037741     0.0     0     0     0     
57     1     1.435     16.235171696043132     0.0     0     0     0     
58     1     4.305     16.235171696043132     0.0     0     0     0     
59     1     7.175000000000001     16.235171696043132     0.0     0     0     0     
60     1     10.045     16.235171696043132     0.0     0     0     0     
61     1     12.915000000000001     16.235171696043132     0.0     0     0     0     
62     1     15.784999999999998     16.235171696043132     0.0     0     0     0     
63     1     18.655     16.235171696043132     0.0     0     0     0     
64     1     21.525000000000002     16.235171696043132     0.0     0     0     0     
65     1     0.0     18.264568158048522     0.0     0     0     0     
66     1     2.87     18.264568158048522     0.0     0     0     0     
67     1     5.74     18.264568158048522     0.0     0     0     0     
68     1     8.61     18.264568158048522     0.0     0     0     0     
69     1     11.479999999999999     18.264568158048522     0.0     0     0     0     
70     1     14.350000000000001     18.264568158048522     0.0     0     0     0     
71     1     17.22     18.264568158048522     0.0     0     0     0     
72     1     20.09     18.264568158048522     0.0     0     0     0     
73     1     1.435     1.1848980747714435e-15     0.0     0     0     0     
74     1     4.305     1.1848980747714435e-15     0.0     0     0     0     
75     1     7.175000000000001     1.1848980747714435e-15     0.0     0     0     0     
76     1     10.045     1.1848980747714435e-15     0.0     0     0     0     
77     1     12.915000000000001     1.1848980747714435e-15     0.0     0     0     0     
78     1     15.784999999999998     1.1848980747714435e-15     0.0     0     0     0     
79     1     18.655     1.1848980747714435e-15     0.0     0     0     0     
80     1     21.525000000000002     1.1848980747714435e-15     0.0     0     0     0     
81     1     0.0     0.0     2.0293964620053915     0     0     0     
82     1     2.87     0.0     2.0293964620053915     0     0     0     
83     1     5.74     0.0     2.0293964620053915     0     0     0     
84     1     8.61     0.0     2.0293964620053915     0     0     0     
85     1     11.479999999999999     0.0     2.0293964620053915     0     0     0     
86     1     14.350000000000001     0.0     2.0293964620053915     0     0     0     
87     1     17.22     0.0     2.0293964620053915     0     0     0     
88     1     20.09     0.0     2.0293964620053915     0     0     0     
89     1     1.435     2.0293964620053915     2.0293964620053915     0     0     0     
90     1     4.305     2.0293964620053915     2.0293964620053915     0     0     0     
91     1     7.175000000000001     2.0293964620053915     2.0293964620053915     0     0     0     
92     1     10.045     2.0293964620053915     2.0293964620053915     0     0     0     
93     1     12.915000000000001     2.0293964620053915     2.0293964620053915     0     0     0     
94     1     15.784999999999998     2.0293964620053915     2.0293964620053915     0     0     0     
95     1     18.655     2.0293964620053915     2.0293964620053915     0     0     0     
96     1     21.525000000000002     2.0293964620053915     2.0293964620053915     0     0     0     
97     1     0.0     4.058792924010783     2.0293964620053915     0     0     0     
98     1     2.87     4.058792924010783     2.0293964620053915     0     0     0     
99     1     5.74     4.058792924010783     2.0293964620053915     0     0     0     
100     1     8.61     4.058792924010783     2.0293964620053915     0     0     0     
101     1     11.479999999999999     4.058792924010783     2.0293964620053915     0     0     0     
102     1     14.350000000000001     4.058792924010783     2.0293964620053915     0     0     0     
103     1     17.22     4.058792924010783     2.0293964620053915     0     0     0     
104     1     20.09     4.058792924010783     2.0293964620053915     0     0     0     
105     1     1.435     6.088189386016174     2.0293964620053915     0     0     0     
106     1     4.305     6.088189386016174     2.0293964620053915     0     0     0     
107     1     7.175000000000001     6.088189386016174     2.0293964620053915     0     0     0     
108     1     10.045     6.088189386016174     2.0293964620053915     0     0     0     
109     1     12.915000000000001     6.088189386016174     2.0293964620053915     0     0     0     
110     1     15.784999999999998     6.088189386016174     2.0293964620053915     0     0     0     
111     1     18.655     6.088189386016174     2.0293964620053915     0     0     0     
112     1     21.525000000000002     6.088189386016174     2.0293964620053915     0     0     0     
113     1     0.0     8.117585848021566     2.0293964620053915     0     0     0     
114     1     2.87     8.117585848021566     2.0293964620053915     0     0     0     
115     1     5.74     8.117585848021566     2.0293964620053915     0     0     0     
116     1     8.61     8.117585848021566     2.0293964620053915     0     0     0     
117     1     11.479999999999999     8.117585848021566     2.0293964620053915     0     0     0     
118     1     14.350000000000001     8.117585848021566     2.0293964620053915     0     0     0     
119     1     17.22     8.117585848021566     2.0293964620053915     0     0     0     
120     1     20.09     8.117585848021566     2.0293964620053915     0     0     0     
121     1     1.435     10.146982310026955     2.0293964620053915     0     0     0     
122     1     4.305     10.146982310026955     2.0293964620053915     0     0     0     
123     1     7.175000000000001     10.146982310026955     2.0293964620053915     0     0     0     
124     1     10.045     10.146982310026955     2.0293964620053915     0     0     0     
125     1     12.915000000000001     10.146982310026955     2.0293964620053915     0     0     0     
126     1     15.784999999999998     10.146982310026955     2.0293964620053915     0     0     0     
127     1     18.655     10.146982310026955     2.0293964620053915     0     0     0     
128     1     21.525000000000002     10.146982310026955     2.0293964620053915     0     0     0     
129     1     0.0     12.176378772032349     2.0293964620053915     0     0     0     
130     1     2.87     12.176378772032349     2.0293964620053915     0     0     0     
131     1     5.74     12.176378772032349     2.0293964620053915     0     0     0     
132     1     8.61     12.176378772032349     2.0293964620053915     0     0     0     
133     1     11.479999999999999     12.176378772032349     2.0293964620053915     0     0     0     
134     1     14.350000000000001     12.176378772032349     2.0293964620053915     0     0     0     
135     1     17.22     12.176378772032349     2.0293964620053915     0     0     0     
136     1     20.09     12.176378772032349     2.0293964620053915     0     0     0     
137     1     1.435     14.205775234037741     2.0293964620053915     0     0     0     
138     1     4.305     14.205775234037741     2.0293964620053915     0     0     0     
139     1     7.175000000000001     14.205775234037741     2.0293964620053915     0     0     0     
140     1     10.045     14.205775234037741     2.0293964620053915     0     0     0     
141     1     12.915000000000001     14.205775234037741     2.0293964620053915     0     0     0     
142     1     15.784999999999998     14.205775234037741     2.0293964620053915     0     0     0     
143     1     18.655     14.205775234037741     2.0293964620053915     0     0     0     
144     1     21.525000000000002     14.205775234037741     2.0293964620053915     0     0     0     
145     1     0.0     16.235171696043132     2.0293964620053915     0     0     0     
146     1     2.87     16.235171696043132     2.0293964620053915     0     0     0     
147     1     5.74     16.235171696043132     2.0293964620053915     0     0     0     
148     1     8.61     16.235171696043132     2.0293964620053915     0     0     0     
149     1     11.479999999999999     16.235171696043132     2.0293964620053915     0     0     0     
150     1     14.350000000000001     16.235171696043132     2.0293964620053915     0     0     0     
151     1     17.22     16.235171696043132     2.0293964620053915     0     0     0     
152     1     20.09     16.235171696043132     2.0293964620053915     0     0     0     
153     1     1.435     18.264568158048522     2.0293964620053915     0     0     0     
154     1     4.305     18.264568158048522     2.0293964620053915     0     0     0     
155     1     7.175000000000001     18.264568158048522     2.0293964620053915     0     0     0     
156     1     10.045     18.264568158048522     2.0293964620053915     0     0     0     
157     1     12.915000000000001     18.264568158048522     2.0293964620053915     0     0     0     
158     1     15.784999999999998     18.264568158048522     2.0293964620053915     0     0     0     
159     1     18.655     18.264568158048522     2.0293964620053915     0     0     0     
160     1     21.525000000000002     18.264568158048522     2.0293964620053915     0     0     0     
161     1     0.012776698483592433     2.0006748334020745     4.159023201598118     0     0     0     
162     1     2.8614446860866836     2.070917467995336     3.9271885468804966     0     0     0     
163     1     5.656758429170994     2.0161533759626398     4.054629467117527     0     0     0     
164     1     8.498063103390185     2.0232002859353413     4.03116478990262     0     0     0     
165     1     11.326931320991083     1.89793548633662     4.067267053031754     0     0     0     
166     1     14.310138804032242     2.0320423854044636     3.8426296512686564     0     0     0     
167     1     17.370840621571574     1.8196604209683465     4.167996421125477     0     0     0     
168     1     20.112205860595928     1.8396128394841769     4.137110693379485     0     0     0     
169     1     1.510799359607678     4.019927616665226     4.093406872063152     0     0     0     
170     1     4.344375222050737     4.100774063500339     4.16051549840244     0     0     0     
171     1     7.19925644339149     4.013011096613064     4.132419768844017     0     0     0     
172     1     10.121812183415292     3.8658496211073783     4.056800029453548     0     0     0     
173     1     12.721384815232902     3.9470703747865263     4.222135716000193     0     0     0     
174     1     15.84792339813273     3.944239233122539     3.9613731110273998     0     0     0     
175     1     18.669972168812567     3.843342923415774     4.10615917771779     0     0     0     
176     1     21.513502820187036     4.013560278979851     4.249535084418423     0     0     0     
177     1     0.08381106229355874     5.912768266500766     4.049281907687785     0     0     0     
178     1     2.904314447709638     6.085912053310258     4.073797615334539     0     0     0     
179     1     5.990712289238868     6.192104739097475     3.993495477693121     0     0     0     
180     1     8.568648417205312     6.084887015993575     4.047681085132233     0     0     0     
181     1     11.559183684924093     5.881125629858709     4.114984923025097     0     0     0     
182     1     14.234289643986372     5.8174610149934916     4.195492899060289     0     0     0     
183     1     17.125750753287587     5.929735678734952     4.01238756718179     0     0     0     
184     1     20.132555294644114     5.805924152638071     4.099963280973577     0     0     0     
185     1     1.3478968184409503     8.16318241608892     4.068185262588149     0     0     0     
186     1     4.559942805747695     8.214390796584137     4.225381354641477     0     0     0     
187     1     7.213658354636954     8.343622572443465     3.9896798712671058     0     0     0     
188     1     10.10220915768875     7.964346364816811     4.023857087593567     0     0     0     
189     1     12.89747349923046     8.002181418078287     4.084586142721189     0     0     0     
190     1     15.719972549398245     7.762765871912847     4.155480751914836     0     0     0     
191     1     18.671742231335106     7.953352171710238     4.208356337036803     0     0     0     
192     1     21.372223572140424     7.917829221844687     4.231009632212364     0     0     0     
193     1     22.921237395902477     10.11913695608769     4.165865115554061     -1     0     0     
194     1     2.73146127203361     9.999164543564671     4.309342185814392     0     0     0     
195     1     5.715386943099435     10.228668902940681     4.153401247224374     0     0     0     
196     1     8.570741719941017     10.14772649967856     4.111090750084522     0     0     0     
197     1     11.439290778706724     10.031454211261297     3.939385765480767     0     0     0     
198     1     14.24747478429132     10.033067234446767     4.021227294905787     0     0     0     
199     1     17.188231246183275     10.023012802110795     4.031854078352171     0     0     0     
200     1     20.285961023913643     9.90027391485388     4.1129323609442165     0     0     0     
201     1     1.475301794085666     12.105724378156115     4.131726952659463     0     0     0     
202     1     4.357514030553343     12.188827932827014     4.179104365557609     0     0     0     
203     1     7.131846595616215     12.137635552940298     4.205782946898221     0     0     0     
204     1     9.852593500990155     12.18160468403707     4.096955659797002     0     0     0     
205     1     13.036741858575098     12.200394887448253     4.034564162361425     0     0     0     
206     1     15.74991806781903     12.082821171190714     4.02427174009615     0     0     0     
207     1     18.698688807544585     11.865809568149317     4.022684959970086     0     0     0     
208     1     21.51627917936854     12.125920146517137     3.9911339633284317     0     0     0     
209     1     0.037715416010733804     14.18648223773644     4.146125004868205     0     0     0     
210     1     2.8559379469103914     14.019933865823571     4.063770336884116     0     0     0     
211     1     5.668428506138399     14.17406850077516     4.087400358526686     0     0     0     
212     1     8.40506251852606     14.200324273501959     4.094575643629799     0     0     0     
213     1     11.513184674357989     14.106955867070408     3.8562731750436194     0     0     0     
214     1     14.296080370093401     14.152823626165214     4.039458794716984     0     0     0     
215     1     17.10798643793439     13.875430260692415     4.0260135712230944     0     0     0     
216     1     19.878776635618994     13.935634619685004     4.07785528056748     0     0     0     
217     1     1.4187485824229025     16.07842741964451     4.049618192129634     0     0     0     
218     1     4.258605440994499     16.355517588861897     4.201961452608934     0     0     0     
219     1     6.987130043998164     16.211574083173797     4.119361828913821     0     0     0     
220     1     9.944430894676117     16.126439073947914     4.016475265687278     0     0     0     
221     1     12.892049985814817     16.22878961366002     4.181109512944219     0     0     0     
222     1     15.914383328504918     15.996330116334457     4.075008342778873     0     0     0     
223     1     18.581453705770713     16.197346807577542     4.157359180565114     0     0     0     
224     1     21.385903940194535     16.219135452557932     4.092808165907944     0     0     0     
225     1     0.11330072335015845     18.156288748197934     4.36801227290772     0     0     0     
226     1     2.8020107394167066     18.15271221664967     4.193225800063312     0     0     0     
227     1     5.741952383563294     18.308311860907587     4.122242695628702     0     0     0     
228     1     8.614374012278983     18.264047080605355     3.91628855862044     0     0     0     
229     1     11.65683592472501     18.201496736410032     3.9600909325197633     0     0     0     
230     1     14.425394986400386     17.940626061916394     4.0732942427453125     0     0     0     
231     1     17.395713030060605     18.26973454223001     4.215956311438896     0     0     0     
232     1     20.2151952894451     18.157303755757603     4.260370753459378     0     0     0     
233     1     1.5216650054897347     20.16650181227867     4.232899686012834     0     -1     0     
234     1     4.3193624762897205     20.271604833235234     3.9140935154297956     0     -1     0     
235     1     7.260229810769349     0.011396512399208802     4.136585682860608     0     0     0     
236     1     10.124786846895072     20.15272153289934     4.1593749430162985     0     -1     0     
237     1     13.020739858061289     20.08136641622186     4.17515788824977     0     -1     0     
238     1     15.912629841837079     20.24422107693063     4.014836558333028     0     -1     0     
239     1     18.608623989000048     20.090486953774565     3.97862201241036     0     -1     0     
240     1     21.71355326880732     20.095894218848766     4.32846015003619     0     -1     0     
241     1     0.10016244481531972     20.2171181961758     6.395676648387321     0     -1     0     
242     1     2.8347735048303626     20.196372859883805     6.324186176421525     0     -1     0     
243     1     5.602861999802896     20.081580310273566     6.243870487736262     0     -1     0     
244     1     8.61754114389786     20.172986704374257     6.328876756164171     0     -1     0     
245     1     11.542442718823768     20.180675105572554     5.991406618335366     0     -1     0     
246     1     14.297177712425112     20.209700944306284     6.007736686212062     0     -1     0     
247     1     17.363441303199107     20.121412886940924     6.143173994207006     0     -1     0     
248     1     20.281268036719577     20.118805263800827     6.20827725094263     0     -1     0     
249     1     1.485191909617764     1.8490702686632583     6.247649410425645     0     0     0     
250     1     4.417225289825253     1.9720455306547002     6.371372549007163     0     0     0     
251     1     7.1600901541809945     1.8728319473061916     6.243817997063426     0     0     0     
252     1     9.985299444247584     1.8974416818193083     6.09966901086648     0     0     0     
253     1     12.86035625805912     1.973242652649376     6.106364820184278     0     0     0     
254     1     15.7895854305215     1.9045981856293364     6.132172992884974     0     0     0     
255     1     18.65575849042894     1.8578384480483103     6.240793932592568     0     0     0     
256     1     21.62779920992752     1.8949649728162     6.224627960957075     0     0     0     
257     1     0.0721203513747841     3.901956732341634     6.2370575005732105     0     0     0     
258     1     3.1243372678081904     3.926500251831736     6.18235852903638     0     0     0     
259     1     5.63514054328804     3.980435107028259     6.209356317765094     0     0     0     
260     1     8.535905601159303     3.961437937062234     6.168641290890997     0     0     0     
261     1     11.179706722264465     4.096468362308233     6.075406786810111     0     0     0     
262     1     14.369843184706278     4.037793062017548     6.012551639564468     0     0     0     
263     1     17.2461340808881     3.8572269496770626     6.228834131727222     0     0     0     
264     1     20.179334666756553     3.717624176471465     6.166375691516841     0     0     0     
265     1     1.5717748358548798     5.88434467349516     6.068603971207068     0     0     0     
266     1     4.436811609038932     6.20402826089181     6.156120679237813     0     0     0     
267     1     7.175300731766222     6.244390378204126     6.2089412573837786     0     0     0     
268     1     9.803308391316717     6.127862189341404     6.041177025294607     0     0     0     
269     1     12.683458377093963     6.18751925648444     6.301718210131878     0     0     0     
270     1     15.93285020859103     5.8675921515257805     6.115471826644569     0     0     0     
271     1     18.733660124717655     5.701633854582892     6.062634889633511     0     0     0     
272     1     21.525681829511022     5.64991961779465     6.269552659629399     0     0     0     
273     1     0.03456369343409804     7.7965463839753     6.226130489417452     0     0     0     
274     1     2.8774562880043932     8.08821980963332     6.1112679361260716     0     0     0     
275     1     5.849069787715604     8.085930100615306     6.326269327515712     0     0     0     
276     1     8.434968041917312     8.228428913546763     6.217238498994007     0     0     0     
277     1     11.387777893294723     8.20571681848776     6.188649938905327     0     0     0     
278     1     14.30431487327383     7.939635877498961     6.384800309607053     0     0     0     
279     1     17.29219995309253     7.820144228182714     6.137905393009837     0     0     0     
280     1     20.15689079640939     7.825124017154842     6.185730363709782     0     0     0     
281     1     1.2993171802439996     9.81462619688435     6.187848563725644     0     0     0     
282     1     4.203945328240846     9.89987336618511     6.292899205040498     0     0     0     
283     1     7.117333558285491     10.145708999969584     6.226237508003978     0     0     0     
284     1     9.697511677563742     10.001825225702468     6.22143036574946     0     0     0     
285     1     12.848259680432495     10.021897470470444     6.241730960708229     0     0     0     
286     1     15.773133858337205     9.802615084886309     5.94771969370865     0     0     0     
287     1     18.594256756897124     9.87562839677907     6.181053035215462     0     0     0     
288     1     21.60003358671368     9.827221963359285     6.086824257112792     0     0     0     
289     1     0.060163856669002924     11.942648083202734     6.045901047300948     0     0     0     
290     1     2.9498337180480334     11.957914293082274     6.08449519781113     0     0     0     
291     1     5.534470972572728     12.239601883646754     6.178432746906581     0     0     0     
292     1     8.586446302013707     12.161791563789556     6.274028795418606     0     0     0     
293     1     11.38400081168244     12.263441694433677     6.145074766564881     0     0     0     
294     1     14.418154977979052     12.034893289190961     6.216607285657329     0     0     0     
295     1     17.439562911130437     11.985927206847359     6.0464315217333136     0     0     0     
296     1     20.32280576594051     11.996298340285716     5.9654857932643806     0     0     0     
297     1     1.5261309845135753     14.08964512270414     6.062742474674178     0     0     0     
298     1     4.152419052214678     14.196275939112159     6.061191233363771     0     0     0     
299     1     7.27378890918701     14.064505603728117     6.15175057065856     0     0     0     
300     1     9.878369451280275     14.203142263820173     6.100200277572794     0     0     0     
301     1     12.927152289753108     14.047659784265614     6.192228517406604     0     0     0     
302     1     15.92325806684851     14.016664857565187     6.003637690340457     0     0     0     
303     1     18.605564940504696     13.96872289186199     6.063537937820222     0     0     0     
304     1     21.574429793379768     14.120576362483103     6.177746181223545     0     0     0     
305     1     22.94201629724693     16.155508433350292     5.974040563925269     -1     0     0     
306     1     2.670306314696298     16.210617355514536     6.064527305565656     0     0     0     
307     1     5.817038024430119     16.08425336502754     6.179654133141644     0     0     0     
308     1     8.669292190506983     16.118332401681243     6.380632745880169     0     0     0     
309     1     11.593935371889335     16.20936290359558     6.064373645238911     0     0     0     
310     1     14.254974395791407     16.14742913487539     5.981177323816267     0     0     0     
311     1     17.31718884474082     16.113165021860024     6.114288310583185     0     0     0     
312     1     20.177050791830247     16.08183067817033     6.17955036907376     0     0     0     
313     1     1.5163873812080788     18.28518524680337     6.227701237745624     0     0     0     
314     1     4.330437185342997     18.062202921105296     6.293713007463195     0     0     0     
315     1     7.325008761525985     18.039774169524527     6.158719336369929     0     0     0     
316     1     10.141220640821754     18.178154285165373     6.117081242663342     0     0     0     
317     1     13.06890601424554     18.215250758855454     6.175289462181808     0     0     0     
318     1     15.813310256167227     18.09853846047552     6.201778584733019     0     0     0     
319     1     18.78842438270123     18.139591154974603     6.362820499698715     0     0     0     
320     1     21.61670822384317     18.153899639862562     6.347810930650058     0     0     0     
321     1     22.840645184429697     2.107881053128004     8.31853044592228     -1     0     0     
322     1     2.885449097821362     1.9155838862515744     8.190556377329752     0     0     0     
323     1     5.8917253014784645     1.8411647737332189     8.279209769307093     0     0     0     
324     1     8.711606560973046     1.8741936548186415     8.146455995974161     0     0     0     
325     1     11.307324078263314     1.822986235777634     8.049900164411309     0     0     0     
326     1     14.334345687483244     2.043675345641181     8.130441807540725     0     0     0     
327     1     17.20510037545921     1.8939532210054422     8.38470897617878     0     0     0     
328     1     20.02958469582344     1.8331942165499255     8.116122949498122     0     0     0     
329     1     1.5950680206227221     4.043462832412159     8.241829914446406     0     0     0     
330     1     4.330065214190401     4.029756949491218     8.212885826782877     0     0     0     
331     1     7.135828778549967     3.9656214789068454     8.059047490121177     0     0     0     
332     1     10.137516241939247     3.977666488746931     8.164617466957115     0     0     0     
333     1     12.853503538955971     4.047895767540963     8.16775347009392     0     0     0     
334     1     15.845333469041577     3.816933849165612     8.326850847450759     0     0     0     
335     1     18.806269474886292     3.7473834246283526     8.148710259051452     0     0     0     
336     1     21.398923649743487     3.88233966846064     8.498392891131687     0     0     0     
337     1     0.08212677652415681     5.734350169600741     8.172626509238526     0     0     0     
338     1     3.000173081080016     5.9794838601444145     8.131087576389698     0     0     0     
339     1     5.798099418548241     6.134274562132509     8.21244911390143     0     0     0     
340     1     8.598792880896495     6.020423964626388     8.133260404460424     0     0     0     
341     1     11.479036595328203     6.20462181824105     8.201341968295214     0     0     0     
342     1     14.51138887715653     5.904787247954305     8.179049077920704     0     0     0     
343     1     17.404590934493456     5.812884737736432     8.498619211905682     0     0     0     
344     1     20.04058289465922     5.884074942006141     8.203502860042335     0     0     0     
345     1     1.2916046417336025     7.806441020872603     8.01396221528501     0     0     0     
346     1     4.409028179818446     7.976604116126146     8.300114228803345     0     0     0     
347     1     7.213107696303477     7.945080624439586     8.525346909878305     0     0     0     
348     1     9.811611341171949     8.016360121492125     8.330622617713123     0     0     0     
349     1     12.767052522835598     7.988958657296509     8.30740190251567     0     0     0     
350     1     15.652890743719391     8.055716279239311     8.25625394920319     0     0     0     
351     1     18.46387749396782     8.092028686627483     8.218144590050956     0     0     0     
352     1     21.645042660985766     8.046515952948475     8.374313758031507     0     0     0     
353     1     22.95630057003702     9.997658780866903     8.334017654880252     -1     0     0     
354     1     2.8247638127134436     9.941905052929098     8.334180940003556     0     0     0     
355     1     5.745818714244128     9.898581079808654     8.458327508395783     0     0     0     
356     1     8.413650094989464     10.085295441073717     8.517408560159843     0     0     0     
357     1     11.476543054105377     10.025247294483751     8.160598295439526     0     0     0     
358     1     14.49546285011386     10.022910838718026     8.260102152040949     0     0     0     
359     1     17.288690139270646     10.09771612524719     8.230371687989434     0     0     0     
360     1     20.22650381719243     9.855094467560923     8.478820335941208     0     0     0     
361     1     1.3555938437799182     12.020803386604143     8.069854500371893     0     0     0     
362     1     4.245484812010709     11.941902895837478     8.253093688782778     0     0     0     
363     1     6.984333081843497     12.04947713182004     8.260250891651312     0     0     0     
364     1     9.863331042116407     12.086447164471801     8.218320772617844     0     0     0     
365     1     12.921311423444655     12.001037297366944     8.138907251260841     0     0     0     
366     1     15.86987776967323     12.094592561504166     8.251682526897694     0     0     0     
367     1     18.73909908802612     11.928313664177734     7.929296687492998     0     0     0     
368     1     21.41606125252977     11.908471830153701     8.18783186560944     0     0     0     
369     1     0.11753426386551435     14.123640113557673     8.426348930570336     0     0     0     
370     1     2.677151802798099     14.066250826253684     8.185793507613393     0     0     0     
371     1     5.480819875693691     14.045996299099041     8.281823620683712     0     0     0     
372     1     8.535376817092063     14.13169580532271     8.251276557099274     0     0     0     
373     1     11.70950876866404     14.116202347802984     8.295726741912684     0     0     0     
374     1     14.537435057003414     14.118733402201327     7.973644443959235     0     0     0     
375     1     17.298500162184393     14.156253393961196     8.095785092928628     0     0     0     
376     1     20.148143267641935     14.023958778428408     8.171969286430333     0     0     0     
377     1     1.2838584732084877     16.067897121109862     8.055371652275946     0     0     0     
378     1     4.10989609487715     16.117368972358904     8.085864299107588     0     0     0     
379     1     7.1988021850514325     16.163700875861817     8.39685644489563     0     0     0     
380     1     10.176403369337187     16.127393652287434     8.303115133650847     0     0     0     
381     1     12.723727496613058     16.132623937663737     8.229759030862448     0     0     0     
382     1     15.87255166699914     16.22224708550725     8.086600807507894     0     0     0     
383     1     18.804230022337475     15.979965400681605     8.191079507553797     0     0     0     
384     1     21.434073286077858     15.963206694839409     8.212332687963707     0     0     0     
385     1     22.914575542819325     18.12432688962468     8.299152359704703     -1     0     0     
386     1     2.729037884888158     18.19466932232993     8.365149947507264     0     0     0     
387     1     5.703795719658391     18.20093617717953     8.237592095052888     0     0     0     
388     1     8.79123062146104     18.13369002770802     8.267771531284575     0     0     0     
389     1     11.594175614173603     18.16168709280894     8.121020982869894     0     0     0     
390     1     14.38530185887917     18.28852172605399     8.288393819175962     0     0     0     
391     1     17.256132980003652     18.17003422144237     8.447444177343678     0     0     0     
392     1     20.050208345829304     17.82568919406447     8.343727368608139     0     0     0     
393     1     1.3515353440491233     0.12336216685244603     8.505495028858045     0     0     0     
394     1     4.1061004679639685     20.155948529567443     8.241587761145157     0     -1     0     
395     1     7.457602140343748     19.849517908056857     8.504021421103015     0     -1     0     
396     1     10.21121929873652     20.077641286180977     8.00125622900007     0     -1     0     
397     1     12.936555020346729     20.146516848792007     8.173057399739301     0     -1     0     
398     1     15.657938422566295     0.010410813612008529     8.253269042205142     0     0     0     
399     1     18.72520694734267     20.17709836931224     8.173353749116643     0     -1     0     
400     1     21.55771015018511     20.17287493618763     8.558854626327168     0     -1     0     
401     2     4.37592890406462     10.490264133827543     9.43807782857059     12     11     0     
402     2     5.6663734908661905     12.735467137154336     9.173852195317844     -3     -13     0     
403     2     1.3000605374418321     1.5202422850227804     9.35183061652899     -1     -8     0     
404     2     11.652165264873803     15.682395492828404     9.249316565103912     -5     9     0     
405     2     13.100652229506009     18.278386889811774     9.226007400818201     3     8     0     
406     2     15.991974138963107     10.528803531196056     8.973053813687471     -2     16     0     
407     2     4.365760502620617     6.362571244255706     9.089627577736803     1     -4     0     
408     2     13.024205411406607     5.919221752560132     9.259912876002305     13     17     0     
409     2     19.054607216602843     4.890897983475148     9.265402570548526     8     17     0     
410     2     18.481570804699782     9.464498718271717     9.470499719888661     -11     -6     0     
411     2     15.771667577826477     5.542663471538286     9.083116594712607     -8     14     0     
412     2     22.854319150944363     16.19820420970353     9.203227432067088     -2     7     0     
413     2     0.26409984658913643     19.285970607691315     9.639625646074418     -6     9     0     
414     2     5.678008568082907     3.361701245076371     9.095537754887111     7     -8     0     
415     2     20.87854923778153     18.945183764359037     9.398000737728013     -1     -31     0     
416     2     17.241682605023346     7.519028419701369     9.11574405674597     -1     -4     0     
417     2     14.468375266517342     3.1236092206755504     9.402547110332453     0     1     0     
418     2     11.594437585401671     0.608252276168796     9.19526771928791     1     2     0     
419     2     1.4450349542732959     10.752568187708368     9.167835654304263     3     -3     0     
420     2     21.532048736992298     0.4089259722038858     2.617620339979381     -2     4     0     
421     2     18.733951282821245     19.14172889761552     9.257535913898796     -2     -1     0     
422     2     5.62869577640919     16.678632449456682     9.179002910693194     -3     -2     0     
423     2     6.763047315184112     9.21355808176715     9.474585151472873     -3     -2     0     
424     2     14.37461766468968     8.441139323615904     9.456260285636338     -2     0     0     
425     2     4.120671205215066     14.512961098986201     9.045426418653783     14     11     0     
426     2     17.293532327729952     11.596820096384558     8.954238899840043     13     7     0     
427     2     8.56680673279598     11.574742275828283     9.21481421978027     1     -4     0     
428     2     14.463750847013863     16.05874298861356     8.890061382401433     3     -7     0     
429     2     11.660278423892954     11.780478366144344     9.160842217470082     -6     -22     0     
430     2     5.637369610888443     19.436086908898805     9.298283586760862     -5     -26     0     
431     2     13.96736738702766     0.9975825082303407     9.430542999493746     -24     11     0     
432     2     4.193945840824924     17.58544240595121     9.046700545210475     1     -11     0     
433     2     9.890821945209893     9.82914055016036     9.094290388058182     -2     -7     0     
434     2     0.01649408816775721     7.344361666155466     9.143305119400802     0     -3     0     
435     2     13.925104827211955     13.068769523888115     9.084494241619145     8     -12     0     
436     2     4.408524770051112     1.399422146122518     9.234093990309937     9     -11     0     
437     2     8.91190542085775     3.4057058234793165     9.297858121346769     -4     2     0     
438     2     21.597083197655298     9.472468101623456     9.516347415101704     -4     4     0     
439     2     15.340107474068116     18.066584842732738     9.436865741692658     3     3     0     
440     2     21.537057977282636     14.629659178780578     9.150279196580144     3     0     0     
441     2     13.030651456646876     10.304526479894816     8.802078066799822     4     -2     0     
442     2     11.52652744570429     3.588423054780996     9.106719091281821     -9     46     0     
443     2     11.469418114684977     11.549246543890293     4.5382236252854655     2     -3     0     
444     2     11.447092685061287     7.687958347363169     9.322258148745561     4     -4     0     
445     2     2.705886464656775     19.73792079424751     9.27184802892256     31     -41     0     
446     2     19.62192033646475     0.7918597595416589     9.208452259459818     28     -41     0     
447     2     2.452353593933487     8.288883767037548     9.299996961261892     -2     0     0     
448     2     0.19350051433752982     3.984311804585918     9.16882265806228     -3     -1     0     
449     2     20.17943997442909     12.547970683967272     9.324896288293239     39     -4     0     
450     2     10.39830877254732     17.510978541602075     9.400745444936708     35     -3     0     
451     2     3.3286187685811788     4.4197717282706215     9.389998804047087     104     17     0     
452     2     10.053875076664903     13.720906694460538     8.8940801981673     104     17     0     
453     2     21.131480659806634     2.4291058852576946     9.16296539292105     69     5     0     
454     2     20.14027396232633     7.488863739908008     8.899917007654267     -8     -2     0     
455     2     20.053668298883284     16.488985656609596     9.43939146538022     -5     -8     0     
456     2     7.389595318121156     1.0841024243398603     9.291385447161018     23     1     0     
457     2     7.237901791257905     5.406065236836756     8.712004555533914     -45     27     0     
458     2     9.08694595455465     15.3907689186563     9.345332428987057     -43     25     0     
459     2     1.6461969021052407     13.699399816054962     9.25870197777829     25     22     0     
460     2     8.784489636438968     7.07825004253383     9.432371598270738     27     21     0     
461     2     18.638329508206752     14.275802721425695     8.985553244758918     51     81     0     
462     2     16.020545364763173     14.99367617848896     9.126664396312336     -1     -12     0     
463     2     7.278165359618087     18.132273838007766     9.347692537748603     -2     -33     0     
464     2     22.82478168271559     11.489438562672179     9.168109205327443     -3     -34     0     
465     2     6.200990407917721     7.193389550107095     9.415085524687465     -43     12     0     
466     2     17.199549115660734     0.1560328610572695     9.029640406998599     -43     13     0     
467     2     21.58215711343321     5.875206658884507     8.874651032597164     -5     34     0     
468     2     17.520398518582386     3.48727259193761     9.383090306681911     -5     34     0     
469     2     10.456728173552456     8.535080628427849     12.012229773142632     -125     39     0     
470     2     10.34350203802208     7.953370894621843     12.595135710477877     -125     39     0     
471     2     9.8280912354826     2.440981413113019     31.775035961603027     -18     -8     0     
472     2     9.328896558338757     1.8607174088919203     32.0510826225633     40     81     0     
473     2     21.93570920419027     4.013293719132184     26.697006995768362     -22     -15     0     
474     2     22.396133492213306     3.8625532829523372     27.17069837451803     -22     -15     0     
475     2     0.14097498733156755     17.323482618128917     18.818946205681403     73     17     0     
476     2     0.044079349071235896     18.04034677328079     18.763281289795845     -1     0     0     
477     2     8.350893257138491     8.130279318544238     39.39941596498467     -91     -50     0     
478     2     8.753897536554664     8.499517628020152     38.76431123865046     -91     -50     0     
479     2     11.429438141785754     2.981248566141395     36.39589921785503     -83     -31     0     
480     2     11.494873128123922     2.597288044475855     35.68328428941273     -83     -31     0     
481     2     1.2102758483227127     8.164727554838784     38.81447591709175     -53     -10     0     
482     2     1.6811088842466302     8.407158564118575     39.276763870656154     -53     -10     0     
483     2     5.167103680181035     12.6620220892088     18.98705328247698     -66     -7     0     
484     2     5.515555615930508     12.699060407877557     18.333960008577762     -70     -7     0     
485     2     10.368052132255897     13.932378802437473     31.705552943950384     -21     -44     0     
486     2     9.827488401695419     13.43121648532509     31.578273767862186     -21     -44     0     
487     2     15.883249717584853     10.423573791163227     27.17161617803819     -106     -23     0     
488     2     15.773355370961264     11.050242393518827     27.459755295139242     -84     5     0     
489     2     5.626459640509251     0.7318488568715339     39.5079691119414     -38     21     0     
490     2     5.398183000532011     1.3777066952536372     39.398687997376506     -38     21     0     
491     2     14.91831224048119     19.36054147207807     28.84993370566364     12     -14     0     
492     2     15.146186566900154     18.976458585787427     29.630463756436676     12     -14     0     
493     2     11.777736320323278     7.335971989854309     15.776734211960099     1     -9     0     
494     2     11.89736985955272     6.772347401564914     16.204591739698028     1     -9     0     
495     2     0.3054633187577466     7.612440764108197     26.32313125247609     16     3     0     
496     2     0.08834210825736477     6.916171848698189     26.49124944262957     16     3     0     
497     2     6.762129761355694     14.759639416850234     33.41335913711309     -14     4     0     
498     2     6.520112153734845     15.468016197172453     33.48188881255404     -14     4     0     
499     2     4.211513249393602     2.3461466907114024     33.6089936252291     -5     -11     0     
500     2     4.486582957982786     1.664364279497207     33.97068838423959     -5     -11     0     
501     2     8.668085101680704     18.43010186532173     30.318701562061246     -11     8     0     
502     2     8.099676898080453     18.949759712055922     30.535913990419868     -11     8     0     


Velocities

1     -0.4946570865914059     -3.7100917112770757     -3.217517628466688     
2     0.5561666612793947     1.2993831432188472     -3.877346628811212     
3     2.638091950154916     1.5003722231428092     -1.6674365648475284     
4     -0.9122270829266522     3.811804432165446     -2.0094421422550575     
5     -1.2289655582420935     1.4706605175196288     0.35047148943926315     
6     0.9128142259957449     -1.9897804882774381     -4.175381728990852     
7     0.19989869920319378     2.199173640072751     -2.710759477477608     
8     3.7220968882609946     -2.124402530747675     0.5049933444902057     
9     0.005378848058808184     -0.49972939878345524     -1.7922817835468365     
10     1.3687096376780026     -4.767042294553172     0.6315114723621595     
11     3.5296287878622046     -0.4831707651325489     -7.224452648778256     
12     -0.7999239851868555     1.2701354620539296     -6.881159228520772     
13     -1.586578899044724     -2.4107290683857343     -7.19606202407949     
14     0.5975708308026967     5.144035055564032     -0.3137092219301031     
15     -2.6702693989178212     11.959381849208443     -7.473075516160749     
16     1.19845311252615     -2.0286468350806897     -1.7278441190335445     
17     -0.5925704103401106     -1.3012459802182488     6.9087097404591     
18     -8.101763176907832     -1.8399975194218716     -1.4935392997641752     
19     9.583713779994147     7.740549270188491     1.833558198451322     
20     2.9598171769019523     2.4092422058126712     2.3072418272478856     
21     -5.524866063285846     -0.2548851717869203     3.644596144417825     
22     3.290840699682053     -3.055139819052871     6.69965442681383     
23     2.288625773413958     -6.530048488953546     4.145321658403709     
24     3.052595393117986     -0.6407080507974237     -3.82916412631951     
25     5.540332257052182     4.1082892327831155     1.8563413766142842     
26     -4.507327768676601     1.3389185165956154     0.820706074640166     
27     -0.9508229623667939     -2.3192920630995113     1.7567634910598766     
28     4.5369784423364985     -6.583220336962946     4.017826733274953     
29     -5.133983691471388     3.491637224034106     1.8550540574750294     
30     -6.094046972714933     -1.6472135654672684     -4.430366193063688     
31     5.3420579347844726     1.2393746777065207     1.4268832074932232     
32     0.0975782577973029     6.048580961102391     -3.3057572038565852     
33     -0.7215886739240697     -0.2914821784858433     -2.50487967156682     
34     -2.9502725464117314     -3.801011677329319     0.2386093290947614     
35     2.896288686383191     2.5286159439059928     -1.5915116285250646     
36     -1.2915459125373292     0.1600442269522265     1.1142946692754032     
37     -5.089187350949227     -4.132286006276989     -2.6546758591568373     
38     -5.0900015574332835     -1.9559000049287687     2.8172819666212803     
39     -0.5688758128799447     -1.0003692435343878     0.004885166465807957     
40     2.318023133851209     -1.95286005088551     -1.867424924627831     
41     -6.224463519744071     -5.822483253733119     -0.3577651459173491     
42     -0.4405436887739381     -1.9778438215143093     0.886385291368282     
43     0.44387266026350414     0.07304075079458983     4.511480485523684     
44     -1.1559813385039903     -0.44968885459228275     0.4731758688699553     
45     3.701365339997977     3.4473577075777064     5.638831382403315     
46     0.37267376063428903     1.0672870100120628     2.5277387145212824     
47     0.2137567690122176     -0.7111646605346814     2.983169224135883     
48     5.3963595295991915     3.5092906115392775     -3.8434322060234596     
49     -2.297165045506231     2.072658756204694     0.05352160982641288     
50     0.05623519087062601     3.1322919955098825     0.8221830978225304     
51     0.6403108402658328     -3.543421500333335     1.830677219344342     
52     -7.255751566030276     -6.965975350750255     -5.857129863372576     
53     -5.148666601839491     -2.5431917641518536     4.089576348736018     
54     2.50663760962118     0.2833249806317262     -2.03679580757269     
55     -2.9344354048136974     0.22284290153226455     4.674943234142955     
56     -0.8685226204170321     4.488331501538503     -1.1081949285683423     
57     -1.464119343140473     -0.5728682870213436     0.5548087607517603     
58     -0.8678473389942926     -2.0663943800250455     2.2329890342386394     
59     4.0859180152761665     0.07106578533332988     -1.7483633285215314     
60     0.4214711704688605     1.9362291562335794     4.107813250054518     
61     -0.4026067695065157     0.7510404532109968     4.626738186624336     
62     -1.7233546422636095     -2.125762116157596     -3.1499821004326387     
63     3.6809993929717235     -2.253026852237255     -5.028204824384397     
64     10.347817166545958     -0.12625583264476503     -0.26264786203341867     
65     -2.9009447739669034     2.0725608064696197     0.17496726769131052     
66     2.884284863542965     -1.7296035076736507     -2.5617242801687246     
67     -5.025103649464449     -1.2170790215209113     -2.494503491335591     
68     -0.1914595190293702     -4.313377065626007     -3.202645077659517     
69     -1.0324069400586728     0.5894254059799487     -1.0594943909648977     
70     -3.301988603394095     -1.482548311441711     -3.430311280454874     
71     -4.018578990355979     2.8144814737956203     -3.6968493165202996     
72     1.7568769121621206     0.35212608294866127     -1.5749522014245083     
73     -6.61003994568069     4.862184771534402     3.3051657434324415     
74     0.9966436365747169     4.023908510302129     2.9825861000639264     
75     1.8820588229531463     -2.291502668469687     -0.03359709585308115     
76     1.5301815625741335     -3.2260217086664817     -4.594021175478442     
77     2.70049984289711     1.87393629711775     4.329553347190563     
78     -4.681619504585541     -5.772227532281055     -1.582754480724572     
79     3.148761351037791     -3.013667288640109     1.1390311492733498     
80     -3.1155923895654816     5.3758300811457325     -1.4040626926162894     
81     -1.980420362806143     -1.8909402847862102     3.6123603742163497     
82     -4.123767751826075     2.00721263548292     4.231477155309484     
83     1.5786898347507192     0.24750147750890483     -1.496680530087756     
84     2.6875136347914945     -4.234941902576027     -0.34425427728354097     
85     1.2558452204735697     -1.0910023854699924     -3.380541616296633     
86     5.691456277540948     4.378037246482773     -4.863156433350362     
87     0.9565426841237035     1.1909473563216337     0.9258150194781296     
88     -4.111808737447614     9.134244985526099     2.6677411447347574     
89     2.7450659307406546     1.4486848632588647     0.15960047133726465     
90     8.499220312651751     1.5864777665920387     -4.622784615081743     
91     1.5901739150775054     -2.8792057301564413     3.251612745604981     
92     -3.3326851621258653     0.1268679770141487     -1.274997539585077     
93     -2.9282537583334403     -1.6328259828765992     -1.305182346622708     
94     3.171972094993095     3.1759121650300295     1.7718932891452783     
95     0.5400879440274949     -1.8351050984955641     -0.5584771374071643     
96     -2.576964454615046     0.3473942045445617     -0.26186825522812157     
97     -0.48453159652608163     3.7732277504380582     4.083988386265036     
98     0.3505932264287157     -0.976252922302412     1.1100920623531332     
99     -0.41351645764240835     -0.5359621166765655     2.5662269720949022     
100     -1.4755385474408043     0.8442500913735694     1.2295477613647798     
101     1.8091695942172101     -0.6824666419644714     -2.1904603382183114     
102     -0.09046187245475856     1.8742166258674     -2.4048961260921975     
103     1.0030277154042329     0.2541503475763587     -4.082965797481224     
104     -0.33299697477970897     -0.6451019180381454     -2.041941472568153     
105     -3.47794086347129     -4.727060638757206     -1.9904412807364917     
106     -0.7679046577835212     1.6256347124756285     3.5220696747802167     
107     5.058843947620545     2.9848082278172856     5.003944383398884     
108     6.390171830926417     -3.3704524137700034     -2.785865083325143     
109     0.2146601568201853     -3.703417084107231     5.247249629304024     
110     -1.4219387501291898     8.594432478871886     2.5704425734078633     
111     -0.4798125199958212     2.0228338289334418     1.288564573392766     
112     -6.268753140700518     -3.7911577692720257     1.035155529431883     
113     -1.868706197303632     -2.5193146140174827     2.9930801219721905     
114     0.23451854426963165     -5.2136017409694215     -3.4095501582901617     
115     -0.24218321691898073     2.405556205689318     -0.11323524922330468     
116     -1.2828453951456307     2.0564846459548587     5.951380877455516     
117     0.6625324386574842     0.29652922231556583     -3.286793678797101     
118     -2.071933882983866     -0.5176085131413204     -4.887408652188899     
119     3.9463819428756928     3.4099605996691125     4.177363665843981     
120     -1.244546515146567     0.5030667060623425     1.501094630855818     
121     5.665788282151707     -2.2669263258333596     -4.881527727114218     
122     -0.023191363680490393     -4.235520837314419     3.8160278818449447     
123     -0.018640015629113247     2.1395824057067667     -0.08447318047572763     
124     -2.3427607234714767     -2.6242152831369285     -0.18871724912443683     
125     2.225624978954763     -2.0433985113218163     3.916376292596051     
126     -4.527638774733007     -0.022692995215359307     4.835048507046835     
127     6.609581510363963     3.655298558385909     -4.992388807726745     
128     -5.122574309004653     0.33873788560754303     0.3027647136456782     
129     0.6997711505133174     0.2926387559540214     2.3612448872762863     
130     3.3133718317008833     -2.119141725679693     1.5799601387597169     
131     0.6927630255510311     3.279674862708025     1.5401027444099085     
132     -1.9012550818005152     -2.2882519678872844     4.236862074827528     
133     -2.9058358406600786     -4.08316068022592     0.7511221765123332     
134     0.05354742654945978     -2.7721181600078304     -5.9685338795106135     
135     2.4508418125106073     0.36030921350283024     -3.754899887566786     
136     0.5443528787664548     -0.7133654016440628     5.440547211065627     
137     -4.586126078488341     -1.1302629113184053     2.9044479024361602     
138     0.8200446074275709     -0.5906830239371867     -0.04420488759313533     
139     2.319069516498598     4.19035507390905     0.06280100750457121     
140     2.7040973467124974     -0.0929005064374617     1.3255072159691095     
141     4.250597940541136     7.17868762210281     -10.259108804916098     
142     -1.8052116015768949     -1.029461788852075     2.0064540297647087     
143     0.9789833998057216     0.420889619143268     3.0006897317565526     
144     1.2302465756991037     -1.995370970994668     -1.2552491707391145     
145     -0.7916564601201846     -4.759607898177965     -1.8254030705226498     
146     -3.2844945556608423     4.125537074358711     -0.002598491685345323     
147     -2.0332991620150533     2.270701445329489     -0.207824768866723     
148     2.666063614500711     -1.1775729214335315     7.182650879332961     
149     -0.5311174075696193     -1.8277609670693105     -2.604770331784952     
150     -1.2013296969645635     0.518553396838356     4.266783972873639     
151     -2.4629495317146772     -0.16938718427274035     0.9204299356764486     
152     3.235407448100727     1.06031788191044     1.1138777284921593     
153     -0.6816945949033807     0.530483374931185     -0.8160781337912612     
154     -5.207070139290976     -0.3084601530147305     0.18955626554425611     
155     -1.1479222999853065     2.7661456864210554     -1.8613861430165355     
156     0.8168446762247052     -2.5885403300812575     -3.328415552923221     
157     4.770270457280314     -0.37908640091364737     3.641069704261331     
158     -1.4083432503120041     2.089605847075642     -5.424756488538488     
159     0.3961582826711215     -2.751855868273487     -0.4626457031512892     
160     0.6990091862795629     -0.5058468482564787     5.060636303258222     
161     -5.461168066411377     -6.060788241314511     -1.2606540921310077     
162     -0.9838701737339318     2.6092950780096253     0.5098248915979127     
163     5.108891963290709     4.084529015096351     -2.0518341512135834     
164     2.482170123132896     6.274082173339045     4.5643526386577715     
165     0.8345637701611431     -3.5896095388720544     2.378307999727094     
166     -1.1232668914142083     0.29204776212796346     -4.480831629786598     
167     6.38935127441203     3.040221868884622     -0.6473916500518471     
168     -9.441945984579373     1.3163825651200074     -4.443601556319974     
169     -2.5718970918609476     -5.806373992779628     2.641502007282284     
170     2.5784373543521983     -6.082926718670016     -0.6499743575934745     
171     3.3884120706787226     0.654425241128411     2.758575349229238     
172     -3.647660748952146     2.865070647931697     -5.86603367751707     
173     -5.941029783211872     4.850604097023371     1.539113204985674     
174     3.674906858766014     1.886323546944323     -2.0983466843656693     
175     -1.1004278049131495     6.223029969877472     6.575040653155836     
176     0.7140957477516848     -3.6036002473791227     -0.6223907328957432     
177     -1.944268786958895     -0.30921411031237706     -3.0365516793794183     
178     -6.0457041743022515     -2.796875776797723     3.53213300613093     
179     -3.081783853988947     -1.6228809865927836     -0.37164097361495185     
180     -3.1871072167700105     -1.1807506374013137     0.7645300845878451     
181     1.9292468048406617     0.1780840656570444     1.9057930828735192     
182     -0.24626987147953566     0.7927522292312245     -4.826726055737783     
183     -2.2002617695871605     -2.9997353001323064     4.320284552129876     
184     0.8062242330997355     2.105981691427451     1.5644509921496905     
185     -1.3168319568342106     -1.7466432237460066     -1.8225396971510879     
186     5.926954967934914     2.68620401795097     5.818094291594473     
187     -3.9877738434359236     -4.337153618527003     1.9747775742710731     
188     0.5419093000498908     3.1252656881763796     -2.887208856430769     
189     -4.8642644829274015     -0.7163331813437325     1.9354087996149227     
190     -2.5666860019061604     -2.1042138447289305     -0.6758107187446131     
191     0.338614296771087     -5.789032385136059     3.992418480210125     
192     0.7862248613548217     0.22635645257301112     1.1236002090119448     
193     -1.450041619193425     2.3846186330590546     -3.787927492312423     
194     1.3475414950488054     -1.6645934849947803     -5.045824218000116     
195     -10.004371953897104     -2.1209841641400913     2.0711275874190007     
196     1.4674756241870985     -4.44123054287119     0.3758345188741696     
197     -2.343588091893878     0.8158482693412971     6.375309780098394     
198     -0.2898087402732807     4.508635775715684     2.437591519521036     
199     2.0972139998421166     -1.293933801714392     4.929181786725954     
200     -1.0452402814507857     -0.6014724159349698     -6.6519963913803295     
201     3.925737545169521     0.45806155955839695     -3.105984993165914     
202     4.554388823090835     5.663025974067673     -0.21982637581101933     
203     -1.185934979162933     -4.891911173607956     -3.413504412181656     
204     0.27148438759014376     -1.7546843745793212     -0.9898950885516042     
205     -1.2991369337101097     2.062536494281793     -1.6431469765831621     
206     4.583976093480297     1.1704990003723565     0.043878481901333886     
207     -1.3849687449111177     -1.186513589215651     3.282685559670467     
208     -1.2054790136077498     4.379733735390721     8.916307957492688     
209     2.5375282048301733     1.0635192359144656     -1.7599156664307505     
210     1.1732250332395833     4.7997158733295535     3.8625603127480397     
211     0.12230821835198306     0.31544916147488516     1.740529622584403     
212     -4.026406754927001     -5.443804610933467     0.287916039019975     
213     7.5757445845273965     -1.651073898930613     4.402117364630464     
214     -2.5401109165586977     0.39341443688530103     -1.3829651991801326     
215     -0.7451773449529122     -4.631448568192239     0.6725464040756849     
216     4.314742789300087     -1.480768297371258     0.18645783361108803     
217     4.43477577591961     -3.2292421987439286     -5.389397779900934     
218     -1.7505707960317112     -3.2845351004284136     -2.040517150617808     
219     4.996618249726218     0.49848172697910814     -0.8575454579008848     
220     2.239814013941852     -0.7309142257497108     -5.401731036855171     
221     -0.7325587611846403     2.791421088014075     -5.95639730047608     
222     0.42319556065679204     -3.180217390656702     1.1146605529630533     
223     -1.5579948763423466     2.8356502888943225     0.6570283319252149     
224     -1.857345380396691     -1.4326279900060663     -4.22601234338578     
225     2.2457049961926354     3.6544292767541653     2.4972165802363007     
226     -2.4362957819147764     -2.092145056709415     -2.6720360129563523     
227     -8.461234975719455     -5.8471537140789875     -2.4793513926394692     
228     3.3012954919399977     3.5568235159891266     1.3308134731546988     
229     0.634274466657253     -2.4573268205867547     5.852152240421074     
230     -0.9481736456813864     6.231072108602383     2.481468951492679     
231     -0.3904715040152169     2.0023857618631657     -0.4035336166126931     
232     2.0679614421219306     5.205971357546244     6.329609393715544     
233     10.179565669151112     -0.10840578372581697     2.3099373552886657     
234     -0.05144319677272188     -4.154535691400728     4.161622371481012     
235     -6.576989543325502     4.247735486203323     -7.677442137909954     
236     2.0803334642881355     3.081782345417949     -0.4140445330145253     
237     4.085146074756689     2.6534441544620146     -1.4364548123560688     
238     -0.20026342761613442     -3.2585984148762983     -2.458626023722198     
239     3.23030204908678     4.548095027889742     2.2144805364222773     
240     3.8014712077842665     0.08185729815786864     2.5416868351578117     
241     -1.0307895851528461     -0.055568969285059874     0.17439132556304207     
242     1.978138826860687     -1.2054515430709836     3.979573094406956     
243     -3.4038335515594524     -4.993227546679567     1.333630310090784     
244     -1.3211905030739945     4.024863875635715     -0.34139375352469953     
245     -7.6376109759447885     3.6247575360912676     2.1291991346443653     
246     3.1814540952008423     2.057073426423625     -1.6012731968108926     
247     1.0161336114918678     -5.2747169012413275     -2.923639586857472     
248     -0.4518693350464944     1.2311302227577654     2.1090889338451     
249     2.6515168447995126     0.17613145416287204     2.309363264795684     
250     -4.733408334675303     2.4005035957412497     -1.685749273720769     
251     2.787528781919022     2.1332191242398193     -2.2115426476935114     
252     -3.6402635629490763     -0.47581750520492067     -4.5366664210814625     
253     -0.12507623473749294     1.8159611300978387     -4.7063451500875     
254     -0.3916974565206505     -6.104372405239814     -3.750553390921277     
255     -1.9296610753505232     4.067428146038123     -3.890884774025819     
256     2.313540218233318     -5.000888280028461     -4.417389282046557     
257     -3.5091828846655977     1.434362384758506     -2.189468550671253     
258     6.576258855356937     -1.8513762771594315     -2.3348759084325934     
259     -4.514176917028542     -4.4689354693612895     -5.6200131807923155     
260     4.2916067595689     -4.237306478678754     -4.093572668147378     
261     -0.7389382234011016     0.15867230629962853     3.111594192393265     
262     7.185208279832807     -0.9464731843417595     0.3073650304098346     
263     -2.3259477992411797     4.37405550662807     2.2971555430828463     
264     -2.1169846272931343     4.368361066331174     -3.017361529965034     
265     -1.145911463430794     -1.5191191402388735     1.1105346194738446     
266     -5.426281849705491     -2.1852623892930825     -4.940077617977311     
267     0.591983539949545     1.4937374868935305     0.661908458091302     
268     2.9017576491656527     -3.562506332799931     1.2493538327365432     
269     3.952719127919308     -7.536853146658257     3.780879131671865     
270     0.25108022397474944     -0.44469147259006947     5.660281446786157     
271     5.615382194763662     1.307254435603441     2.471631812501314     
272     6.846224034204825     1.3670267260870321     1.377904660635658     
273     1.5007609114828564     9.522788481389048     2.5576052142258123     
274     1.1326498203112016     0.448395039959557     -3.3737130502235417     
275     5.653723706776795     4.144782659151825     0.4371386449696383     
276     3.778079311401474     4.217294219953788     8.23880227505304     
277     -1.2912357915445432     2.9197529001632128     0.40386901526698615     
278     -3.9578337520748854     2.384567066160981     -1.0988061455165592     
279     -2.635873603178636     -2.821928137884296     2.717384464149998     
280     -2.3055976038486365     -7.294223151894498     -0.04112159340572793     
281     -4.303915715564144     -4.522533486578194     1.2830687697426102     
282     -0.5843850550861116     1.8344959249999178     2.1330431754534946     
283     1.0921544352829604     0.8376353574003615     -0.7033517818909957     
284     3.8260160394974836     0.3311637585636828     -6.21731242180401     
285     1.6181211108427809     -0.4189047018642932     4.3398620789869335     
286     -0.1783971845081705     -3.076899558208776     -2.4035688162191913     
287     1.5459987933402575     2.065197504422571     0.8641911349352125     
288     -0.6049010087851889     -3.3726867216257497     1.4574919687029513     
289     -6.041412733254481     -0.9350176574328537     1.7237247302887462     
290     3.4454857261996588     -6.606325828992763     0.4776706256871645     
291     -2.9349477153325054     2.2145139398678464     0.7076707218490773     
292     0.3900566036207577     6.562345049270937     -1.7543758461392598     
293     1.3561103146746387     -3.800819004285144     -6.6786045134982785     
294     -8.392693844806573     -0.4023878684808923     0.19604829058735582     
295     1.1085494213260196     1.0970246939382045     5.704144952313116     
296     6.971441578068483     0.49951031988376654     -1.5519900411626926     
297     -3.1372319818673438     -2.2888671665439833     -1.796933416227708     
298     0.633751734165377     2.8260454233544277     -1.4432154361990457     
299     5.286921150715547     -3.141441709934527     2.1190504258548044     
300     -2.8087166268655333     -0.9235990702264408     5.853345259935704     
301     -5.634313821181103     -3.834746152416994     -3.525221901233587     
302     -1.3302027583997846     0.5374348560449406     -2.223022586512482     
303     -2.3437342322749095     1.5085958005062439     -2.7683961468984095     
304     -2.894693429861803     -0.526780816110786     0.3775172215833863     
305     3.3236487066795335     -4.271281097240174     0.13810588096097087     
306     -2.0811581072155163     -0.9900742526366478     -2.635271142443947     
307     8.577531710735892     4.8110388833694655     0.9961740528158894     
308     -5.219223296646665     -2.313630446870672     -4.573129583260035     
309     -2.0515665981143196     -7.790315113372081     -2.364753252122815     
310     -1.324557987334472     3.6408052670794198     2.9553652464743148     
311     5.973728164552543     2.7494115269697503     0.5685074633828181     
312     2.5647443106682135     -1.128832593179672     5.21335384955019     
313     -3.0631468668361115     -1.557747533639671     -1.774120146903553     
314     -1.5304644183851306     -1.929743745419616     -3.840564969994403     
315     -0.6835462289142672     -1.9829264166813283     6.463164325588836     
316     -0.5610267307126454     5.61102759902406     0.17517435117861388     
317     2.4213676082687066     -2.5774305865307015     -2.290593160406671     
318     2.193217898665458     -4.321779553350398     4.9823236396030515     
319     5.474157915222875     -1.5323802327239366     1.7819290016869918     
320     -4.380051884241175     1.0121608772856885     2.7191613957771996     
321     -0.5258453846393907     4.632553123827019     3.3178178066948782     
322     0.6130736751077472     -0.19924913441428452     3.501366515610508     
323     -0.19479164024635268     0.6863876043766445     2.094720621967676     
324     -2.92835881836542     2.2139359483649894     -2.6316237283466406     
325     3.5698030387525836     2.077109603420193     4.819534745209515     
326     0.6771204257147747     -2.629178596804678     3.4109814769909548     
327     -3.521188730271109     4.134887046912883     -0.4916369886385148     
328     -1.799689695180514     -0.6321615478982011     -0.9789510207278316     
329     0.6394391195677602     5.087874212284242     -0.48809989974373497     
330     4.4626335277504205     3.72937535991637     0.5610272601483065     
331     -2.1295022194592153     -5.2492006546589876     -0.3535195347032607     
332     -0.6549690886608501     0.895607098814432     0.7894767694034249     
333     2.2346207533007347     -2.9673213144927595     4.720046472560105     
334     -0.32912403998640666     0.0706346016031496     -0.3962178121434289     
335     2.1898134533618148     -0.611695223452393     2.4887540903417804     
336     -0.8924930849730262     -3.9582343146910084     -1.2191965014699016     
337     1.6100099952773095     -2.076957593512985     3.4685905157107673     
338     5.163055206810691     -2.768495633776505     -0.42227589455174197     
339     5.1550134005859185     -8.319869917249797     -4.00054160229758     
340     -4.958065394307031     -5.028489118139002     -5.68960201128884     
341     -2.508900973323717     -3.7393052636177186     -1.7520140439200598     
342     2.5938657693148737     0.8477184336738143     -0.4338335228532049     
343     4.61904123819048     -1.4065359374200315     -1.5719343126119238     
344     -5.766906511845364     -3.2034307095030026     -0.19419283176072155     
345     -4.453624050705264     -1.0873907771912197     -0.08616048705392203     
346     -4.989293829323689     2.9650964933142925     0.4080809183978139     
347     0.9076871786702976     2.277615557117081     -3.2387641950580632     
348     1.2071622194446385     -1.2747108935695564     6.312331411806985     
349     0.5160328728448799     -2.38760751575514     -0.6781291710042614     
350     -7.880581039854901     2.746502342488951     -0.31223814482961565     
351     5.2584482707931315     -6.457280788418554     4.967536234584776     
352     -3.841920777630758     0.858948020092129     -3.0701520670249858     
353     -3.0616481613976054     4.6195635569829     -4.579364928987539     
354     -5.505199446831623     -1.4781890124519022     0.8264842397366554     
355     5.548118340221596     0.10933368723094354     0.5011343483594646     
356     -3.4204133426316377     1.4209198525790376     6.4004667896099985     
357     -2.1137791257549847     0.4334291337452517     -2.7519774190451405     
358     -1.786643081303692     1.5159020405530566     3.3318980906466416     
359     3.1656618328083574     -1.2151728222701725     0.8979964260558441     
360     1.7338224449988635     4.580238338691495     8.47009487963249     
361     1.9729527275265593     -4.784884261829649     0.58068027681931     
362     -1.1436297797589772     0.41953719225280806     -2.6623828866000285     
363     -3.6585932122009863     3.015959875059832     6.296271175609964     
364     0.056607402450095275     1.6740600933477052     1.3214095537592736     
365     -1.0953907189123417     -2.0071378098438117     4.460530391538783     
366     0.9048242136667748     4.071653542727505     3.7464744902762326     
367     1.3795756788908342     2.1664603773976756     3.145693500636476     
368     0.8171065659598895     5.235249663834377     0.7728725762313021     
369     2.193593890123251     -0.3658643802740568     -3.1846552259521093     
370     -0.8841493794863236     -3.6035314882483163     1.4089705524945626     
371     -3.145979740476712     -1.0471921146236778     2.38898889891969     
372     0.3592339093496715     4.979626172832808     -3.3003927414746768     
373     -0.026676558729188733     -0.4897930523400599     1.1980457489734135     
374     4.42272707365157     0.8223279244154184     4.868365527484399     
375     5.612611821015654     -2.9800943929731005     3.660877398198126     
376     -3.7552373387110065     5.927510090399235     3.8501262581270415     
377     1.9384772015228229     -2.7139915614682883     0.09509120579264961     
378     -5.6956194756942295     -2.0712872623511123     0.9476047789791252     
379     -0.06194428018116678     0.2684704751015003     0.07675484148999702     
380     -1.0175782200097716     -0.8412780312629021     -3.2906600018237118     
381     -0.5607893990683354     -0.4906804572341145     0.03584188074692165     
382     -0.44902527088806793     -4.521655775344487     -1.9561810706755742     
383     -2.497841767414292     -4.602011748116097     1.4155593479191984     
384     0.7340329030674118     -0.6885236851194514     -6.34783949652497     
385     0.2598203218430159     -1.2670651560380914     -3.1358183260463903     
386     5.840116744607935     -2.6875230887694292     0.5712286477317324     
387     1.84224964092202     1.3017272322748492     7.6527433092221395     
388     3.0598995653374335     -1.4449401816756184     1.9966095006077178     
389     2.2578223514676203     -3.9222972530826685     -1.608653887652915     
390     -6.452238068346967     -0.9073385613780078     -5.13461156108407     
391     0.13793610280553864     -0.6714866202745233     9.06790582689666     
392     -0.7604073864201985     -0.27785112805930523     -3.1121124751630305     
393     -6.114025378556922     2.1088664925090295     0.025997464525456555     
394     2.4142206115351286     -1.9467250006405663     0.6999788937079497     
395     9.342786340963947     -4.661939805271815     -3.440490473024143     
396     -1.2232390345887192     -1.7522827948326019     -1.8641524538606549     
397     12.035016857108316     -4.71287056316394     -0.7992525518715907     
398     0.9911620479415021     -6.268511043829129     3.1963039048527255     
399     -4.401062359796142     0.15538882297417408     7.338030538951121     
400     -4.400340160925045     -1.539456243383229     -6.693926732517443     
401     3.6296017093428907     -17.268458080471596     -10.964211196495155     
402     -19.950739004999985     3.0749868255710258     33.8164185001197     
403     -4.368123749346074     20.93081106026002     12.711182249694696     
404     2.456412404570636     9.164763586443037     3.623319597469048     
405     -1.380912655918518     -42.84172654885752     12.16433190036775     
406     -12.856455918249571     7.376929965763648     0.2374717393924773     
407     18.43347235500891     -62.51063213099321     -18.091183021670858     
408     6.405285441929288     -16.894622013413983     -0.2862094372550254     
409     -21.11068292202049     26.08183186801639     16.516827364920434     
410     -3.012435466991516     21.50829907684004     4.246761413789421     
411     8.938984070615719     7.861115807201542     -14.46340053970836     
412     -4.329020287117131     -12.480512997519483     -42.201842974780305     
413     23.93592372882294     12.036379787701874     25.902876837884833     
414     30.403772296739664     1.6196298708798014     -11.444056511236871     
415     18.68755544768994     7.472253813656273     35.70051478920033     
416     47.97324009790663     1.9724534339223685     3.290200723023811     
417     19.300903326766072     -13.496089388699545     -13.911882774407877     
418     -5.6049829829206725     15.19565782506899     30.683260837359832     
419     -8.776023570881765     -6.975891376131973     -13.61214068658102     
420     -28.69411105211756     36.69846090237674     -14.263604699852957     
421     -9.155758214880843     -6.865232223872085     -17.46885229366903     
422     0.140956884233535     -22.78346000960432     20.821732831421368     
423     23.603955425204138     -13.324004926171048     35.93164546412403     
424     1.4063410757330972     12.248177855490507     15.884690744715003     
425     -16.336509640986545     -8.10249091020892     3.5888079448657555     
426     -3.986992308483094     4.2412730088182835     7.45596012125621     
427     14.73465684285479     4.3637569806167384     19.830207808481514     
428     -6.82065112666607     -5.0957642523898325     -41.87203285392387     
429     8.57167289207059     35.57657810772889     0.5998143890100791     
430     -15.9687815138602     -9.39188721438365     -1.3762438530460885     
431     -13.613265219625175     -2.340436701110637     -5.494787740851969     
432     22.056132911664108     0.7097459468196939     -8.308046224369257     
433     -22.217771980518926     16.221758687059143     -13.563333070256405     
434     -12.345775787649904     19.036753452288707     -30.854237589140958     
435     -13.986396159930266     10.058346746697012     7.692614204455239     
436     -6.841419137865117     22.346151172028605     7.301437101867564     
437     16.179835560394913     -9.361875654662583     -8.15231199150254     
438     16.590097584231707     26.299831984380916     9.226968916221114     
439     8.593716164421426     -9.311779282914829     3.4002126448453884     
440     1.0193523792878014     11.638118936709946     -0.37045349258243504     
441     9.118818677147756     -26.42843635702751     -17.574904468737568     
442     21.524800152139697     2.6784826761837053     -6.908680976243874     
443     -11.582000179044382     14.209857053765935     -32.73630770638673     
444     -21.90743433856544     -35.11787790668638     -15.219164750390012     
445     -6.298421012398713     1.7020877052164496     -26.565783401399628     
446     -1.8455809894010202     -44.22630035107245     -15.284931330343419     
447     2.421033512750078     -0.7026954915143224     -7.543592818000897     
448     -51.43250956263982     11.129060234479223     -14.442451207511173     
449     -2.938756200521398     -45.75586994831505     53.44705099353784     
450     12.628369734584417     0.04963184875797413     -9.864091778488701     
451     51.288944823771004     -3.66730732289279     -32.03331052976505     
452     8.69286304736882     19.695547098073376     23.811174447886497     
453     1.423804995076558     0.4791968155459015     17.674538036794733     
454     18.30380489954095     -14.327764834003181     20.642097974309436     
455     6.294621244236172     -3.751871587841762     -7.527135341905936     
456     -1.7723494040983934     22.591860136290467     10.936022454364842     
457     -2.12686417154577     -19.50304038881153     32.1881572830292     
458     -28.512671699080904     -2.86034235454998     9.423532894931745     
459     18.533309895142473     19.545224780644105     -25.82761031929043     
460     -15.089079794843865     2.223511869025915     9.44244993894477     
461     -9.089065410777433     2.6049182088588703     8.545981588602286     
462     11.148025370106387     4.289290422731291     -24.81146315658499     
463     -8.244867266789973     -3.6779872917611685     1.074293976152361     
464     17.476393557336614     1.813197128413132     -4.998778469307883     
465     11.248304180023275     12.101644436523966     28.421309672354692     
466     -4.627489961554852     4.661512083969581     -6.221268223679001     
467     6.167548048093622     1.3602520810325025     -12.766104222247701     
468     2.346971935276959     -9.592540397128946     -1.8977268995324985     
469     -15.519145756734936     0.6384560443339805     -14.547539925689142     
470     4.118451537067255     30.220740252818487     11.035860449265966     
471     20.838874018011644     7.499333410498963     9.283512938849778     
472     0.05286409789991967     -26.33477867047413     24.754814902035545     
473     -0.46604371385923976     -17.121201108410844     -28.45106366739181     
474     -21.36148053972952     -15.393151100684367     9.420270818126344     
475     14.167506688359401     -4.8706669863292955     5.8992032268395675     
476     33.41722801274512     4.155406647845559     0.3126670993483959     
477     29.058583349986378     -34.73661503020374     -29.681594880669795     
478     0.21003144339355523     19.484209237849576     3.487946398784962     
479     9.092149464427239     -9.572454123568738     15.282565811888913     
480     -3.2139409130231806     1.998480142425106     3.48641419499634     
481     -16.799999276856774     -1.4470024203948597     -38.724080566794235     
482     23.95562361721244     -6.157801257020184     -30.824243760111262     
483     5.011875755769475     16.515198374026422     13.084209660204708     
484     -7.524440123871047     6.597054181101573     -12.088864664206913     
485     -43.573947842726376     -3.9609979817810332     -10.589737874187854     
486     -27.25630094286475     3.552750218476156     -13.910818694998294     
487     -17.356679916915617     3.087569198181794     -11.489798766903876     
488     -24.00055716606606     -15.45614115712798     -16.463482793105086     
489     7.403225949718635     -41.838557805605085     -10.438544943556346     
490     -9.815068450563231     6.824676072627903     18.819421810047853     
491     -13.96026288900438     3.573898190675321     20.526856546980703     
492     14.493645110416344     -19.673296559826557     8.86947854127074     
493     -36.017286670556516     -8.640568614598715     4.040972730162965     
494     36.346019550856546     -31.293622091052963     21.20828874133653     
495     -37.27292765297606     20.580805221285274     19.607360671442038     
496     11.697091791880515     12.850655737752145     -36.45839667780251     
497     -30.59150900345814     -16.540370658035847     38.07983716909852     
498     26.039272832150626     22.82182568586853     -3.3979378553815667     
499     -7.177147612440242     -3.196670746127422     25.31849265176056     
500     -36.96327744376905     -10.294058106719133     22.515759088302655     
501     19.119127008052715     34.25496941775751     11.56717942536446     
502     -33.1646729989694     -21.137912065988328     9.69466557092475     

